O  C                                    
   1.00000000000000     
    13.6750001907000005    0.0000000000000000    0.0000000000000000
    -6.8375000954000003   11.8428975618999992    0.0000000000000000
     0.0000000000000000    0.0000000000000000   14.7670001983999999
   O    Si   Al   Ag   S 
    74    33     3     3     1
Direct
  0.8995144270386680  0.0985147988085323  0.1180428253852732
  0.1064670517564495  0.8906403636703696  0.8779999577508527
  0.8940342227225763  0.7949071063235714  0.1288465923818876
  0.0957392246434254  0.1968435850467781  0.8643381257626976
  0.1970389380557893  0.1051065642356536  0.1148824049757320
  0.8031399227976261  0.9065076689980633  0.8788965127779678
  0.5561735879905423  0.4279223253491326  0.4541656423589888
  0.7642913026282383  0.2346328726007095  0.2176261256620524
  0.5662157211304425  0.1417282727407566  0.4702865667874346
  0.7678673491814721  0.5407205822442106  0.2050510088375569
  0.8663999394011673  0.4282907673398632  0.4584629321455516
  0.4652503454791995  0.2365334980708693  0.1825060082821096
  0.2309926306071855  0.7770076395827392  0.7736656857652296
  0.4255003875995976  0.5712926995629641  0.5245207006973530
  0.2341228100917679  0.4526186168939954  0.7719598927995625
  0.4298575725958019  0.8529363075834585  0.5296044584076948
  0.5346671437358204  0.7580914406668694  0.8045530505411511
  0.1252120078612274  0.5614207418014338  0.5327143533127471
  0.9777602498361503  0.3171958786685595  0.1594278810534878
  0.0223222484410150  0.6703424891543951  0.8409324467273496
  0.6777689395748779  0.6732947123250793  0.1711377979122672
  0.3139842422613154  0.3178881279944098  0.8179741863358878
  0.3190398745729465  0.0157382725678945  0.1769691059081157
  0.6638323943813520  0.9818736148199350  0.8264119157316316
  0.3261124810183325  0.9869092694712462  0.8376973199241968
  0.6781608519137265  0.0051975249840645  0.1614689107574102
  0.6726334206128388  0.6729561786393370  0.8128486980664537
  0.3335737874982747  0.3247726306800161  0.1562049122274686
  0.0200719955313820  0.3391932658335949  0.8319559662041734
  0.9883438782077517  0.6705754539251526  0.1701278263247729
  0.6473436210744054  0.6419566450881552  0.5026822754585949
  0.3422446047685414  0.9946451363871259  0.4748129991378702
  0.9952805291072806  0.3393305425339862  0.4978053092863114
  0.3385916350710808  0.3523314613800596  0.4802723446528009
  0.9874665189777487  0.6446771416765952  0.5039124694703089
  0.6509813290455592  0.0092025841789902  0.5148184885822292
  0.1185367526271144  0.2441698809072110  0.1294716993012984
  0.8871030856195287  0.7503023806165752  0.8521536144869245
  0.7618515886924375  0.8793487789575878  0.1100492884470198
  0.2306073474004029  0.1100880129132119  0.8695339084560637
  0.1126924889329596  0.8840860652122786  0.1277679237634844
  0.8765573656960547  0.1252121212893368  0.8582960967835604
  0.7760311506343441  0.5587363929369699  0.4656630149430982
  0.5364106619476281  0.0872788593960514  0.1745933672766877
  0.4160911959063969  0.2111973231666109  0.4665125377915179
  0.9032620142278907  0.4542821123900281  0.1966128739317533
  0.7842782986755537  0.2087696648320524  0.4526588633931908
  0.5478819718664393  0.4563589513402468  0.1941486497859282
  0.4472880139181568  0.8926949869875730  0.8066711631040679
  0.2102631992663793  0.4288273483450125  0.5400996580015146
  0.1230622379498766  0.5573081509199536  0.8011878294278726
  0.5802294655090277  0.7892377867043150  0.5196166548437158
  0.4522395047842165  0.5358150143124207  0.7993859985150076
  0.2030576673508390  0.7776373543948301  0.5461166065029494
  0.9999088932731439  0.2589423247060340  0.9942262431674627
  0.9907781672450854  0.7323957093479964  0.0012858913610254
  0.7364028063713364  0.7157312684356255  0.9982417215927379
  0.2556517240059407  0.2667225391372727  0.9905540685505305
  0.2684074530656174  0.0011165485710497  0.0029546468972011
  0.6619548320586202  0.5912574692563590  0.3327257473404631
  0.6329494342590575  0.0506386489622221  0.3412396379339716
  0.4404222465907356  0.1084750007741996  0.3243703971917090
  0.9227076952451573  0.5902114928942271  0.3339103510604530
  0.9397924845546647  0.3444551773724261  0.3292440845960404
  0.4056094388121992  0.3235149844763819  0.3212379882761472
  0.3609294098758697  0.9520658561450316  0.6663769813387205
  0.3540652181463234  0.4103312196428400  0.6535425471037416
  0.0599039400658078  0.4085751851230590  0.6650515908813418
  0.5755466900675409  0.8973381313792714  0.6666413669120642
  0.5703222845166451  0.6611811724609874  0.6602511776932544
  0.0525298487771990  0.6392528453435964  0.6698661417265852
  0.7333175897611669  0.0135815164593957  0.9931566456710802
  0.7422747391112701  0.3368175726391171  0.7969603362639308
  0.7140481355379171  0.3740538918865339  0.6348575598601023
  0.9973392635650168  0.2290516869001133  0.1010323946239382
  0.0027080960153842  0.7632666761217619  0.8945470400717344
  0.7666575770525361  0.7645466495582526  0.0991776295345091
  0.2231232714026694  0.2225873822277681  0.8867300710789240
  0.2239504987426153  0.0024856794003119  0.1055628703079627
  0.7713930443740705  0.0035834928130456  0.8882154287205277
  0.2322490899467871  0.9965858473985036  0.8971486003354366
  0.7699767528900454  0.9994897018642149  0.0983312429823015
  0.2262619035430693  0.2344686246210486  0.0974186440202207
  0.9981592478617382  0.2284190059760262  0.8883096252674344
  0.9954042431067351  0.7703408022570681  0.1065019088927276
  0.6603456327986522  0.5541752604569323  0.4368050646619988
  0.4400926144436564  0.1104731342480373  0.4346658246366785
  0.8943306167433829  0.5627045451386383  0.2266384711320632
  0.8938520548894670  0.3284805358134522  0.4324515001764846
  0.4387040946655910  0.3347824597091130  0.2144776074969192
  0.8919176695826350  0.3339906949791873  0.2255497808171608
  0.4296239756378963  0.3274047337947284  0.4290391941864365
  0.4410317141538438  0.1120714116309810  0.2156546613401584
  0.8881655879953728  0.5542633373595949  0.4385631194237045
  0.6650380134036803  0.5652711649476900  0.2255095946806389
  0.6570451081823693  0.1019379082350669  0.4414807523255265
  0.3413794184687565  0.9038423464183827  0.7669482318177998
  0.3323294985159884  0.4383590476147743  0.5510048743864413
  0.1095679656852447  0.4388122635861346  0.7678051781699080
  0.5588113959620957  0.8899874227692245  0.5574806878926689
  0.5569238127846485  0.6579474286474696  0.7695963481720126
  0.0931590795937709  0.6601194473638029  0.5637822275424933
  0.5573728582779631  0.6669837883211969  0.5522026190852771
  0.1099230309362525  0.6638011219585630  0.7706352969087408
  0.0953128706091235  0.4321450960308341  0.5594149739965771
  0.5550061935333133  0.8824940463381922  0.7744816636651594
  0.3378261910804268  0.4284911793317204  0.7608755156045183
  0.7747127473294533  0.7695739946490647  0.8905697504411212
  0.6567698700912858  0.0963167358636840  0.2304322380429543
  0.3326386663064547  0.9008262441486601  0.5560935503495046
  0.5645704616307202  0.0284102766993740  0.0353666744158007
  0.3196552285523861  0.6729994244047970  0.4792275833821101
  0.7712761565790475  0.5857743803322177  0.7745021144234741
  0.7423286875078268  0.4105916206058395  0.7272667464225191
 
  0.00000000E+00  0.00000000E+00  0.00000000E+00
  0.00000000E+00  0.00000000E+00  0.00000000E+00
  0.00000000E+00  0.00000000E+00  0.00000000E+00
  0.00000000E+00  0.00000000E+00  0.00000000E+00
  0.00000000E+00  0.00000000E+00  0.00000000E+00
  0.00000000E+00  0.00000000E+00  0.00000000E+00
  0.00000000E+00  0.00000000E+00  0.00000000E+00
  0.00000000E+00  0.00000000E+00  0.00000000E+00
  0.00000000E+00  0.00000000E+00  0.00000000E+00
  0.00000000E+00  0.00000000E+00  0.00000000E+00
  0.00000000E+00  0.00000000E+00  0.00000000E+00
  0.00000000E+00  0.00000000E+00  0.00000000E+00
  0.00000000E+00  0.00000000E+00  0.00000000E+00
  0.00000000E+00  0.00000000E+00  0.00000000E+00
  0.00000000E+00  0.00000000E+00  0.00000000E+00
  0.00000000E+00  0.00000000E+00  0.00000000E+00
  0.00000000E+00  0.00000000E+00  0.00000000E+00
  0.00000000E+00  0.00000000E+00  0.00000000E+00
  0.00000000E+00  0.00000000E+00  0.00000000E+00
  0.00000000E+00  0.00000000E+00  0.00000000E+00
  0.00000000E+00  0.00000000E+00  0.00000000E+00
  0.00000000E+00  0.00000000E+00  0.00000000E+00
  0.00000000E+00  0.00000000E+00  0.00000000E+00
  0.00000000E+00  0.00000000E+00  0.00000000E+00
  0.00000000E+00  0.00000000E+00  0.00000000E+00
  0.00000000E+00  0.00000000E+00  0.00000000E+00
  0.00000000E+00  0.00000000E+00  0.00000000E+00
  0.00000000E+00  0.00000000E+00  0.00000000E+00
  0.00000000E+00  0.00000000E+00  0.00000000E+00
  0.00000000E+00  0.00000000E+00  0.00000000E+00
  0.00000000E+00  0.00000000E+00  0.00000000E+00
  0.00000000E+00  0.00000000E+00  0.00000000E+00
  0.00000000E+00  0.00000000E+00  0.00000000E+00
  0.00000000E+00  0.00000000E+00  0.00000000E+00
  0.00000000E+00  0.00000000E+00  0.00000000E+00
  0.00000000E+00  0.00000000E+00  0.00000000E+00
  0.00000000E+00  0.00000000E+00  0.00000000E+00
  0.00000000E+00  0.00000000E+00  0.00000000E+00
  0.00000000E+00  0.00000000E+00  0.00000000E+00
  0.00000000E+00  0.00000000E+00  0.00000000E+00
  0.00000000E+00  0.00000000E+00  0.00000000E+00
  0.00000000E+00  0.00000000E+00  0.00000000E+00
  0.00000000E+00  0.00000000E+00  0.00000000E+00
  0.00000000E+00  0.00000000E+00  0.00000000E+00
  0.00000000E+00  0.00000000E+00  0.00000000E+00
  0.00000000E+00  0.00000000E+00  0.00000000E+00
  0.00000000E+00  0.00000000E+00  0.00000000E+00
  0.00000000E+00  0.00000000E+00  0.00000000E+00
  0.00000000E+00  0.00000000E+00  0.00000000E+00
  0.00000000E+00  0.00000000E+00  0.00000000E+00
  0.00000000E+00  0.00000000E+00  0.00000000E+00
  0.00000000E+00  0.00000000E+00  0.00000000E+00
  0.00000000E+00  0.00000000E+00  0.00000000E+00
  0.00000000E+00  0.00000000E+00  0.00000000E+00
  0.00000000E+00  0.00000000E+00  0.00000000E+00
  0.00000000E+00  0.00000000E+00  0.00000000E+00
  0.00000000E+00  0.00000000E+00  0.00000000E+00
  0.00000000E+00  0.00000000E+00  0.00000000E+00
  0.00000000E+00  0.00000000E+00  0.00000000E+00
  0.00000000E+00  0.00000000E+00  0.00000000E+00
  0.00000000E+00  0.00000000E+00  0.00000000E+00
  0.00000000E+00  0.00000000E+00  0.00000000E+00
  0.00000000E+00  0.00000000E+00  0.00000000E+00
  0.00000000E+00  0.00000000E+00  0.00000000E+00
  0.00000000E+00  0.00000000E+00  0.00000000E+00
  0.00000000E+00  0.00000000E+00  0.00000000E+00
  0.00000000E+00  0.00000000E+00  0.00000000E+00
  0.00000000E+00  0.00000000E+00  0.00000000E+00
  0.00000000E+00  0.00000000E+00  0.00000000E+00
  0.00000000E+00  0.00000000E+00  0.00000000E+00
  0.00000000E+00  0.00000000E+00  0.00000000E+00
  0.00000000E+00  0.00000000E+00  0.00000000E+00
  0.00000000E+00  0.00000000E+00  0.00000000E+00
  0.00000000E+00  0.00000000E+00  0.00000000E+00
  0.00000000E+00  0.00000000E+00  0.00000000E+00
  0.00000000E+00  0.00000000E+00  0.00000000E+00
  0.00000000E+00  0.00000000E+00  0.00000000E+00
  0.00000000E+00  0.00000000E+00  0.00000000E+00
  0.00000000E+00  0.00000000E+00  0.00000000E+00
  0.00000000E+00  0.00000000E+00  0.00000000E+00
  0.00000000E+00  0.00000000E+00  0.00000000E+00
  0.00000000E+00  0.00000000E+00  0.00000000E+00
  0.00000000E+00  0.00000000E+00  0.00000000E+00
  0.00000000E+00  0.00000000E+00  0.00000000E+00
  0.00000000E+00  0.00000000E+00  0.00000000E+00
  0.00000000E+00  0.00000000E+00  0.00000000E+00
  0.00000000E+00  0.00000000E+00  0.00000000E+00
  0.00000000E+00  0.00000000E+00  0.00000000E+00
  0.00000000E+00  0.00000000E+00  0.00000000E+00
  0.00000000E+00  0.00000000E+00  0.00000000E+00
  0.00000000E+00  0.00000000E+00  0.00000000E+00
  0.00000000E+00  0.00000000E+00  0.00000000E+00
  0.00000000E+00  0.00000000E+00  0.00000000E+00
  0.00000000E+00  0.00000000E+00  0.00000000E+00
  0.00000000E+00  0.00000000E+00  0.00000000E+00
  0.00000000E+00  0.00000000E+00  0.00000000E+00
  0.00000000E+00  0.00000000E+00  0.00000000E+00
  0.00000000E+00  0.00000000E+00  0.00000000E+00
  0.00000000E+00  0.00000000E+00  0.00000000E+00
  0.00000000E+00  0.00000000E+00  0.00000000E+00
  0.00000000E+00  0.00000000E+00  0.00000000E+00
  0.00000000E+00  0.00000000E+00  0.00000000E+00
  0.00000000E+00  0.00000000E+00  0.00000000E+00
  0.00000000E+00  0.00000000E+00  0.00000000E+00
  0.00000000E+00  0.00000000E+00  0.00000000E+00
  0.00000000E+00  0.00000000E+00  0.00000000E+00
  0.00000000E+00  0.00000000E+00  0.00000000E+00
  0.00000000E+00  0.00000000E+00  0.00000000E+00
  0.00000000E+00  0.00000000E+00  0.00000000E+00
  0.00000000E+00  0.00000000E+00  0.00000000E+00
  0.00000000E+00  0.00000000E+00  0.00000000E+00
  0.00000000E+00  0.00000000E+00  0.00000000E+00
  0.00000000E+00  0.00000000E+00  0.00000000E+00
  0.00000000E+00  0.00000000E+00  0.00000000E+00
