O  C                                    
1.0
       13.6750001907         0.0000000000         0.0000000000
       -6.8375000954        11.8428975619         0.0000000000
        0.0000000000         0.0000000000        14.7670001984
    O   Si   Al   Ag    S
   74   33    3    3    1
Direct
     0.898656130         0.098887838         0.117515057
     0.107188806         0.888379872         0.882067978
     0.894484282         0.795035183         0.128440037
     0.095581986         0.198255196         0.866032600
     0.195681527         0.104096338         0.116474435
     0.802460551         0.904824734         0.881234467
     0.554851830         0.426829278         0.455914795
     0.764207900         0.234215975         0.219675079
     0.566914141         0.142152533         0.470941424
     0.766712308         0.539871216         0.206899524
     0.864271879         0.425709546         0.464310467
     0.465444893         0.237202793         0.183177993
     0.231874451         0.776657581         0.775818586
     0.424364895         0.569851875         0.524705350
     0.231387585         0.448698789         0.771554112
     0.429344207         0.852033615         0.530620933
     0.531373501         0.757521868         0.805505335
     0.125235185         0.560605705         0.532620847
     0.977722049         0.316858053         0.161668882
     0.021779858         0.669507682         0.841208398
     0.678882897         0.674330294         0.173855752
     0.313599765         0.316924483         0.819156110
     0.318724811         0.016067078         0.178480789
     0.664383113         0.981376290         0.826623321
     0.325568646         0.987672389         0.837975264
     0.677683234         0.004780098         0.162519827
     0.671284497         0.673784256         0.813208044
     0.332506686         0.324009627         0.157693803
     0.016797621         0.337707639         0.831597149
     0.987757027         0.671378970         0.174144045
     0.646561205         0.640663743         0.505321145
     0.342966825         0.993909419         0.474580705
     0.995025337         0.338177681         0.498545676
     0.337046951         0.350615799         0.481544554
     0.986500502         0.643053293         0.505470216
     0.650435686         0.008022892         0.514953196
     0.117790028         0.243758336         0.129616082
     0.888035297         0.751790881         0.854898989
     0.762370169         0.879468143         0.111678407
     0.227213368         0.108084030         0.870333433
     0.113315247         0.882966220         0.126844585
     0.875724733         0.124261260         0.860890746
     0.774533868         0.556589186         0.468349725
     0.536235511         0.087553531         0.174872324
     0.415439993         0.210146219         0.467718989
     0.902031183         0.453844786         0.195423111
     0.784521163         0.206896767         0.451759666
     0.546803951         0.457095057         0.196034774
     0.448546886         0.895884931         0.807092071
     0.209343851         0.426930159         0.543044686
     0.123179838         0.556614816         0.802487493
     0.579243124         0.787998915         0.520178378
     0.449780941         0.535995424         0.801461756
     0.202689171         0.777010024         0.545037687
     0.999560952         0.261439472         0.995234787
     0.989906788         0.727647007         0.003167182
     0.733897150         0.714144766         0.999985218
     0.255779952         0.265629590         0.991754591
     0.270953059         0.003893375         0.004110546
     0.661771119         0.590616047         0.335072845
     0.631034076         0.049126919         0.341681212
     0.441621810         0.109732814         0.324986130
     0.919849038         0.584297955         0.336170077
     0.939572513         0.348448187         0.330618501
     0.404954016         0.322681785         0.322532505
     0.358543485         0.950814426         0.666673124
     0.355019391         0.410051733         0.654828548
     0.057154045         0.408923239         0.665692568
     0.575504363         0.897167027         0.667210221
     0.566615403         0.660217881         0.661717892
     0.054657929         0.639198363         0.670588672
     0.730883598         0.011501968         0.994145691
     0.764841020         0.372123986         0.753346980
     0.739618659         0.365123004         0.609236002
     0.996816993         0.229443863         0.101747073
     0.001744747         0.761305332         0.896710038
     0.766445518         0.764225900         0.100276776
     0.222469479         0.221969351         0.887899816
     0.224064425         0.002468632         0.106384754
     0.770557880         0.001600146         0.889637291
     0.231960699         0.996308029         0.898659110
     0.769177973         0.998827159         0.099084802
     0.225593761         0.233616188         0.098538235
     0.997220397         0.228460640         0.889760077
     0.995211303         0.769076586         0.107461460
     0.659278989         0.553005397         0.439112246
     0.440571576         0.110394612         0.435262114
     0.893006682         0.561461031         0.228220433
     0.893223941         0.327830762         0.433768392
     0.438154757         0.334821820         0.215733200
     0.891463101         0.334506780         0.226556942
     0.428517878         0.326221615         0.430389047
     0.441158652         0.112657025         0.216284335
     0.886340797         0.551566541         0.441299468
     0.664517522         0.565356195         0.227588326
     0.656457722         0.100772537         0.441802591
     0.341037571         0.904332161         0.767707944
     0.331943721         0.437139452         0.552477896
     0.108388290         0.437808454         0.768446326
     0.558398306         0.889102936         0.558164954
     0.555321991         0.657872200         0.771427214
     0.093545780         0.659550309         0.564123154
     0.555884361         0.665809691         0.553672731
     0.110613860         0.663737833         0.772005022
     0.094924152         0.431475312         0.560127139
     0.554608941         0.882592022         0.775073707
     0.337458283         0.427559614         0.762049913
     0.773072958         0.766709387         0.891753376
     0.656089067         0.095919736         0.231184766
     0.332211852         0.900120676         0.556294084
     0.560357571         0.022403898         0.037131794
     0.320245057         0.672542155         0.479075760
     0.783202410         0.601633310         0.754541457
     0.754840016         0.442119986         0.688350022
