O  C                                    
   1.00000000000000     
    13.6750001907000005    0.0000000000000000    0.0000000000000000
    -6.8375000954000003   11.8428975618999992    0.0000000000000000
     0.0000000000000000    0.0000000000000000   14.7670001983999999
   O    Si   Al   Ag   S    H 
    72    33     3     3     1     2
Direct
  0.8987313251026602  0.0990308698118857  0.1187669730779291
  0.1014337665712075  0.8872901021208848  0.8812136298813034
  0.8917665752947552  0.7919894342231790  0.1261839692382528
  0.0950226793715798  0.1980710202479195  0.8678065448402341
  0.1961180129296922  0.1052901960847537  0.1175770387583172
  0.8023363851892212  0.9029656166436523  0.8804532170884941
  0.5520431225583103  0.4261599636471584  0.4582936933540008
  0.7633859811767174  0.2360182248703432  0.2202942843455946
  0.5665131108391255  0.1430521262694133  0.4716434814468918
  0.7656266615646865  0.5380867283810837  0.2049357127665812
  0.8639857226637886  0.4247110275925763  0.4659742946163137
  0.4642925578674978  0.2372174051829141  0.1845078183546774
  0.2317910352378347  0.7747119645566690  0.7741420352924360
  0.4242318615173861  0.5688867604032548  0.5254248037041243
  0.2290475765014016  0.4459292049971647  0.7718009969415146
  0.4271005309968741  0.8500090394380109  0.5325571976555579
  0.5298962944124480  0.7567454173099709  0.8062005781661273
  0.1238653658749953  0.5602096581658347  0.5329371640979377
  0.9771576210311979  0.3166701729027773  0.1630148853168021
  0.0230635832212032  0.6692375015751811  0.8431726435646126
  0.6783308064759459  0.6742249110261190  0.1774699805748352
  0.3128032318199280  0.3154774285326288  0.8195712275248859
  0.3182363433871583  0.0159585445969843  0.1784421783023835
  0.6636697863859377  0.9799783540565332  0.8282761846009226
  0.3209836855126147  0.9838617708596937  0.8394873270180564
  0.6777618662113737  0.0067922965494236  0.1627688077817268
  0.6682200317927099  0.6712178263613718  0.8155570334741683
  0.3321869226314881  0.3250573184624616  0.1586768806796345
  0.0150639465957607  0.3361791413244110  0.8322872254565504
  0.9874476568631667  0.6726371619745388  0.1778859415517222
  0.6462920974508514  0.6408740081368836  0.5058991421854432
  0.3428551295849319  0.9930804687872024  0.4756913503485599
  0.9952536136465557  0.3373138200665789  0.4992995165679474
  0.3342813574581270  0.3489664576714728  0.4826205888269470
  0.9850447709711786  0.6423457988710598  0.5067112349443520
  0.6476245036793368  0.0069590778318212  0.5156840409126234
  0.1177838245074966  0.2447192564263027  0.1298379512847838
  0.8816997693534908  0.7421675098998755  0.8614608421701104
  0.7624978963176022  0.8799228764394347  0.1172545846375777
  0.2258579764416296  0.1070354362671094  0.8716849373658390
  0.1104498904145304  0.8844000904739098  0.1318548301773517
  0.8752442452404238  0.1223721289367430  0.8621930368344176
  0.7707549958153631  0.5505566927540035  0.4748938956914417
  0.5356598382669593  0.0881493252912135  0.1756044820112630
  0.4140955686650262  0.2093094914683158  0.4688641085218668
  0.9042792412068109  0.4554647713588375  0.1980326972501329
  0.7836629986783168  0.2062077402309411  0.4548468893618974
  0.5458410195387584  0.4571130238342062  0.1987083034212026
  0.4478621627215386  0.8961292472492158  0.8084896507801740
  0.2092274355472893  0.4280577196266685  0.5445722774363890
  0.1229196351023565  0.5554476799193532  0.8038868017614463
  0.5781542187744638  0.7874124648434947  0.5217446383819333
  0.4473516826497455  0.5349940357862452  0.8023265521055760
  0.2005857875584198  0.7769455446156934  0.5476459613578576
  0.9980216766311987  0.2612631255651537  0.9961664043329449
  0.9955729131496336  0.7282009737541261  0.0058467616021863
  0.7257280817922312  0.7144115276964232  0.0023112565350638
  0.2564187876294305  0.2661562518207707  0.9924485587093231
  0.2646522644984374  0.9990255861306948  0.0050339332298696
  0.6658392117008867  0.5885030829733376  0.3372220313336762
  0.6314139225287089  0.0505998445300420  0.3422478541515115
  0.4400612636051028  0.1088984649700643  0.3257846286613197
  0.9133647769941726  0.5830671626619954  0.3383509167866529
  0.9380888804144127  0.3464941857573241  0.3321773723414471
  0.4031524977581356  0.3218182777970640  0.3238680321470629
  0.3587226312910718  0.9516806714786705  0.6679900798712251
  0.3545903913347330  0.4091370647728474  0.6556036555627502
  0.0558171859218801  0.4088270117101898  0.6664716932358947
  0.5746584822596790  0.8974098615080986  0.6685223403902962
  0.5657845198830935  0.6592033182632667  0.6629102461399313
  0.0523987867556446  0.6357793696618308  0.6719478195765217
  0.7309185102027472  0.0082900227116965  0.9953171606495336
  0.9963540259207812  0.2296665234251234  0.1025633849729738
  0.9995214783291687  0.7583934510344351  0.8988195273059668
  0.7635217319378265  0.7635213767719505  0.1023355453838300
  0.2217755284042656  0.2212806341823479  0.8889398823664519
  0.2218625692075200  0.0018783666646149  0.1078907022832593
  0.7703550721712306  0.9995915024667786  0.8905055483450020
  0.2271050889151642  0.9932299082203087  0.8993445495131350
  0.7692792270608699  0.9987133683402898  0.1007949175939287
  0.2256462059844196  0.2345014274853161  0.0991746807459803
  0.9960112813237911  0.2276384530203035  0.8908364111028092
  0.9950217788813106  0.7689134380380056  0.1093376983771917
  0.6584497021168543  0.5513836454094267  0.4416925847177451
  0.4394996389058516  0.1097748605732317  0.4360054974509610
  0.8917515611183070  0.5613428594753330  0.2296786939307631
  0.8927579479538718  0.3265953809575095  0.4355131830293364
  0.4369741929120467  0.3347111577672289  0.2171254039111103
  0.8912860434188529  0.3347659360807038  0.2278896734764222
  0.4260911665501315  0.3250510083707209  0.4316723553861420
  0.4401187570620865  0.1124920272175400  0.2169437038912418
  0.8841704695223447  0.5499981352595306  0.4436783833790388
  0.6647383450328832  0.5643661421419945  0.2290556789030298
  0.6555656487314165  0.1006835782773606  0.4427609902379040
  0.3397099017051315  0.9033105961088024  0.7686253627553553
  0.3310066256621524  0.4365886207980170  0.5535555665310316
  0.1064217745895837  0.4361938517039464  0.7692623741505605
  0.5565642024768503  0.8880611161109717  0.5596043226281799
  0.5531657774832922  0.6566527566316972  0.7725462112015014
  0.0920326922878274  0.6586971775079040  0.5656178831958557
  0.5553342574799401  0.6652734477582897  0.5548596577139407
  0.1099745666131569  0.6622568716977917  0.7731847919789208
  0.0940164191679484  0.4312932296263042  0.5613339201981289
  0.5536199697957309  0.8822391563311757  0.7764493888978785
  0.3356591422810112  0.4259612179765584  0.7627517660343826
  0.7707525494118695  0.7644833632826494  0.8940675334184097
  0.6558653512833976  0.0974424888269301  0.2316549495987356
  0.3308244844416595  0.8993689150524332  0.5580446999193172
  0.5605444070246177  0.0220833456485139  0.0377320833958611
  0.3186687604368147  0.6709737370129316  0.4806163990029324
  0.7533243244673514  0.5722394028720379  0.7710692560541285
  0.7564532581259934  0.4124411300594479  0.7088455595100718
  0.8686153320184994  0.4667289970920370  0.6898613750835283
  0.7295289462447399  0.4195019350025636  0.6215999793599938
 
  0.00000000E+00  0.00000000E+00  0.00000000E+00
  0.00000000E+00  0.00000000E+00  0.00000000E+00
  0.00000000E+00  0.00000000E+00  0.00000000E+00
  0.00000000E+00  0.00000000E+00  0.00000000E+00
  0.00000000E+00  0.00000000E+00  0.00000000E+00
  0.00000000E+00  0.00000000E+00  0.00000000E+00
  0.00000000E+00  0.00000000E+00  0.00000000E+00
  0.00000000E+00  0.00000000E+00  0.00000000E+00
  0.00000000E+00  0.00000000E+00  0.00000000E+00
  0.00000000E+00  0.00000000E+00  0.00000000E+00
  0.00000000E+00  0.00000000E+00  0.00000000E+00
  0.00000000E+00  0.00000000E+00  0.00000000E+00
  0.00000000E+00  0.00000000E+00  0.00000000E+00
  0.00000000E+00  0.00000000E+00  0.00000000E+00
  0.00000000E+00  0.00000000E+00  0.00000000E+00
  0.00000000E+00  0.00000000E+00  0.00000000E+00
  0.00000000E+00  0.00000000E+00  0.00000000E+00
  0.00000000E+00  0.00000000E+00  0.00000000E+00
  0.00000000E+00  0.00000000E+00  0.00000000E+00
  0.00000000E+00  0.00000000E+00  0.00000000E+00
  0.00000000E+00  0.00000000E+00  0.00000000E+00
  0.00000000E+00  0.00000000E+00  0.00000000E+00
  0.00000000E+00  0.00000000E+00  0.00000000E+00
  0.00000000E+00  0.00000000E+00  0.00000000E+00
  0.00000000E+00  0.00000000E+00  0.00000000E+00
  0.00000000E+00  0.00000000E+00  0.00000000E+00
  0.00000000E+00  0.00000000E+00  0.00000000E+00
  0.00000000E+00  0.00000000E+00  0.00000000E+00
  0.00000000E+00  0.00000000E+00  0.00000000E+00
  0.00000000E+00  0.00000000E+00  0.00000000E+00
  0.00000000E+00  0.00000000E+00  0.00000000E+00
  0.00000000E+00  0.00000000E+00  0.00000000E+00
  0.00000000E+00  0.00000000E+00  0.00000000E+00
  0.00000000E+00  0.00000000E+00  0.00000000E+00
  0.00000000E+00  0.00000000E+00  0.00000000E+00
  0.00000000E+00  0.00000000E+00  0.00000000E+00
  0.00000000E+00  0.00000000E+00  0.00000000E+00
  0.00000000E+00  0.00000000E+00  0.00000000E+00
  0.00000000E+00  0.00000000E+00  0.00000000E+00
  0.00000000E+00  0.00000000E+00  0.00000000E+00
  0.00000000E+00  0.00000000E+00  0.00000000E+00
  0.00000000E+00  0.00000000E+00  0.00000000E+00
  0.00000000E+00  0.00000000E+00  0.00000000E+00
  0.00000000E+00  0.00000000E+00  0.00000000E+00
  0.00000000E+00  0.00000000E+00  0.00000000E+00
  0.00000000E+00  0.00000000E+00  0.00000000E+00
  0.00000000E+00  0.00000000E+00  0.00000000E+00
  0.00000000E+00  0.00000000E+00  0.00000000E+00
  0.00000000E+00  0.00000000E+00  0.00000000E+00
  0.00000000E+00  0.00000000E+00  0.00000000E+00
  0.00000000E+00  0.00000000E+00  0.00000000E+00
  0.00000000E+00  0.00000000E+00  0.00000000E+00
  0.00000000E+00  0.00000000E+00  0.00000000E+00
  0.00000000E+00  0.00000000E+00  0.00000000E+00
  0.00000000E+00  0.00000000E+00  0.00000000E+00
  0.00000000E+00  0.00000000E+00  0.00000000E+00
  0.00000000E+00  0.00000000E+00  0.00000000E+00
  0.00000000E+00  0.00000000E+00  0.00000000E+00
  0.00000000E+00  0.00000000E+00  0.00000000E+00
  0.00000000E+00  0.00000000E+00  0.00000000E+00
  0.00000000E+00  0.00000000E+00  0.00000000E+00
  0.00000000E+00  0.00000000E+00  0.00000000E+00
  0.00000000E+00  0.00000000E+00  0.00000000E+00
  0.00000000E+00  0.00000000E+00  0.00000000E+00
  0.00000000E+00  0.00000000E+00  0.00000000E+00
  0.00000000E+00  0.00000000E+00  0.00000000E+00
  0.00000000E+00  0.00000000E+00  0.00000000E+00
  0.00000000E+00  0.00000000E+00  0.00000000E+00
  0.00000000E+00  0.00000000E+00  0.00000000E+00
  0.00000000E+00  0.00000000E+00  0.00000000E+00
  0.00000000E+00  0.00000000E+00  0.00000000E+00
  0.00000000E+00  0.00000000E+00  0.00000000E+00
  0.00000000E+00  0.00000000E+00  0.00000000E+00
  0.00000000E+00  0.00000000E+00  0.00000000E+00
  0.00000000E+00  0.00000000E+00  0.00000000E+00
  0.00000000E+00  0.00000000E+00  0.00000000E+00
  0.00000000E+00  0.00000000E+00  0.00000000E+00
  0.00000000E+00  0.00000000E+00  0.00000000E+00
  0.00000000E+00  0.00000000E+00  0.00000000E+00
  0.00000000E+00  0.00000000E+00  0.00000000E+00
  0.00000000E+00  0.00000000E+00  0.00000000E+00
  0.00000000E+00  0.00000000E+00  0.00000000E+00
  0.00000000E+00  0.00000000E+00  0.00000000E+00
  0.00000000E+00  0.00000000E+00  0.00000000E+00
  0.00000000E+00  0.00000000E+00  0.00000000E+00
  0.00000000E+00  0.00000000E+00  0.00000000E+00
  0.00000000E+00  0.00000000E+00  0.00000000E+00
  0.00000000E+00  0.00000000E+00  0.00000000E+00
  0.00000000E+00  0.00000000E+00  0.00000000E+00
  0.00000000E+00  0.00000000E+00  0.00000000E+00
  0.00000000E+00  0.00000000E+00  0.00000000E+00
  0.00000000E+00  0.00000000E+00  0.00000000E+00
  0.00000000E+00  0.00000000E+00  0.00000000E+00
  0.00000000E+00  0.00000000E+00  0.00000000E+00
  0.00000000E+00  0.00000000E+00  0.00000000E+00
  0.00000000E+00  0.00000000E+00  0.00000000E+00
  0.00000000E+00  0.00000000E+00  0.00000000E+00
  0.00000000E+00  0.00000000E+00  0.00000000E+00
  0.00000000E+00  0.00000000E+00  0.00000000E+00
  0.00000000E+00  0.00000000E+00  0.00000000E+00
  0.00000000E+00  0.00000000E+00  0.00000000E+00
  0.00000000E+00  0.00000000E+00  0.00000000E+00
  0.00000000E+00  0.00000000E+00  0.00000000E+00
  0.00000000E+00  0.00000000E+00  0.00000000E+00
  0.00000000E+00  0.00000000E+00  0.00000000E+00
  0.00000000E+00  0.00000000E+00  0.00000000E+00
  0.00000000E+00  0.00000000E+00  0.00000000E+00
  0.00000000E+00  0.00000000E+00  0.00000000E+00
  0.00000000E+00  0.00000000E+00  0.00000000E+00
  0.00000000E+00  0.00000000E+00  0.00000000E+00
  0.00000000E+00  0.00000000E+00  0.00000000E+00
  0.00000000E+00  0.00000000E+00  0.00000000E+00
  0.00000000E+00  0.00000000E+00  0.00000000E+00
  0.00000000E+00  0.00000000E+00  0.00000000E+00
