O2                                      
   1.00000000000000     
    13.6750001907000005    0.0000000000000000    0.0000000000000000
    -6.8375000954000003   11.8428975618999992    0.0000000000000000
     0.0000000000000000    0.0000000000000000   14.7670001983999999
   O    S    C 
     1     1     1
Direct
  0.8169187259269571  0.5149351912495690  0.6819632356733696
  0.7639229111706698  0.5306106596248006  0.5059519594086916
  0.7941552649023725  0.5216729291256348  0.6063391679179360
 
  0.00000000E+00  0.00000000E+00  0.00000000E+00
  0.00000000E+00  0.00000000E+00  0.00000000E+00
  0.00000000E+00  0.00000000E+00  0.00000000E+00
