O2                                      
1.0
       13.6750001907         0.0000000000         0.0000000000
       -6.8375000954        11.8428975619         0.0000000000
        0.0000000000         0.0000000000        14.7670001984
    O    S    C
    1    1    1
Direct
     0.815416873         0.514427781         0.681433976
     0.764789999         0.529810011         0.511434019
     0.794790030         0.522980988         0.601386368
