O  C                                    
1.0
       13.6750001907         0.0000000000         0.0000000000
       -6.8375000954        11.8428975619         0.0000000000
        0.0000000000         0.0000000000        14.7670001984
    O   Si   Al   Ag
   74   33    3    3
Direct
     0.896479011         0.094900563         0.119736448
     0.101415537         0.886795163         0.880379319
     0.890693545         0.792430878         0.129985765
     0.093205847         0.194062054         0.867219865
     0.192850143         0.101391643         0.117044494
     0.799054146         0.901434958         0.882703722
     0.552024364         0.424182087         0.458302796
     0.761069775         0.232028425         0.219682217
     0.563820183         0.139720798         0.471161038
     0.763798356         0.536350191         0.204448372
     0.862918973         0.423935831         0.460875839
     0.461764336         0.233653933         0.184071466
     0.228882775         0.771836102         0.777252138
     0.422965676         0.567915082         0.525317013
     0.230945066         0.449583232         0.775345862
     0.426772475         0.849062622         0.531572282
     0.531067073         0.754586995         0.805608749
     0.120677397         0.557100415         0.533842802
     0.974265814         0.313533694         0.161090687
     0.019154299         0.667445004         0.841998160
     0.675244272         0.671223283         0.175481856
     0.311035156         0.314670801         0.819353342
     0.315783501         0.012640907         0.177975789
     0.661302269         0.977869451         0.828002870
     0.321195722         0.982010007         0.839192629
     0.675084651         0.002684987         0.162986815
     0.670849741         0.671540320         0.812768400
     0.329309136         0.321052045         0.158708081
     0.015788386         0.334402919         0.832720280
     0.984482825         0.667900085         0.172946498
     0.644993365         0.639702737         0.503374875
     0.340110630         0.991268933         0.476074696
     0.992162108         0.334867179         0.499025166
     0.334461242         0.348159164         0.482087135
     0.984566212         0.641775012         0.504476130
     0.647456408         0.006094886         0.516027689
     0.115362972         0.241471276         0.129264340
     0.882202148         0.745925367         0.854284525
     0.757551670         0.875817001         0.111546196
     0.226495683         0.106095619         0.869852006
     0.109321266         0.880329072         0.128592685
     0.873985946         0.120088212         0.859416544
     0.771958470         0.553735435         0.469974130
     0.533314526         0.084780999         0.175646693
     0.412085384         0.207206368         0.467749238
     0.900813818         0.451525807         0.197788164
     0.781414688         0.204701900         0.453152865
     0.543909013         0.453682870         0.194702640
     0.445290446         0.890984356         0.807778537
     0.207708195         0.426899493         0.539760351
     0.117639922         0.552340925         0.802326381
     0.577607751         0.786336780         0.520711541
     0.449550211         0.532830954         0.800604761
     0.200465038         0.773500323         0.544301271
     0.994380474         0.255227029         0.995463610
     0.985584259         0.727615476         0.003072514
     0.730356634         0.709933877         0.001626159
     0.254459918         0.262778789         0.992135942
     0.264609665         0.998493552         0.004140610
     0.659348249         0.584332645         0.334910184
     0.628810287         0.046914209         0.342379540
     0.437079430         0.105177574         0.325521469
     0.915123880         0.584488273         0.335895211
     0.937125683         0.342089415         0.330767125
     0.404118150         0.321888357         0.323223710
     0.354984820         0.946309686         0.667827487
     0.349639684         0.407779634         0.655075252
     0.058308069         0.404032439         0.666092217
     0.573454320         0.894379616         0.667961299
     0.567765415         0.658253074         0.661050260
     0.052385949         0.639563382         0.670684814
     0.730328143         0.010967831         0.994851232
     0.792491019         0.511105835         0.661519825
     0.842490971         0.631106019         0.641520023
     0.993609011         0.225669608         0.102148175
     0.998650789         0.758685052         0.896376252
     0.762545705         0.761022627         0.102017075
     0.220672265         0.219324470         0.888242304
     0.220304117         0.999209642         0.106883638
     0.768357873         0.999456882         0.890321851
     0.227831423         0.992738426         0.898387015
     0.766709149         0.996482491         0.100035407
     0.223095611         0.230974451         0.098833494
     0.994681954         0.224560052         0.889799118
     0.991528511         0.766805530         0.108251214
     0.656846046         0.549530029         0.439650387
     0.437219620         0.107328579         0.435830981
     0.889975905         0.558767498         0.228147984
     0.890893102         0.324798793         0.434005797
     0.435347468         0.331949592         0.216136798
     0.888927758         0.331104428         0.227194086
     0.426099122         0.323911011         0.431241035
     0.437652737         0.109107226         0.216833457
     0.883918822         0.549527407         0.441218674
     0.661595225         0.561078250         0.227134913
     0.653782129         0.098708093         0.442473352
     0.337471038         0.899393082         0.768701911
     0.328988165         0.435277790         0.552132905
     0.105804108         0.434564352         0.769209564
     0.555923462         0.886794925         0.558829248
     0.553418279         0.654754937         0.770181358
     0.090209857         0.656885684         0.564280987
     0.554491162         0.663916469         0.552886546
     0.106598496         0.660007119         0.772100031
     0.092001133         0.428323984         0.560405195
     0.552236199         0.879512191         0.775695503
     0.334462225         0.425386697         0.762670159
     0.769545317         0.764214814         0.894484282
     0.653416336         0.093663283         0.231861129
     0.329280287         0.896781325         0.557092607
     0.561027467         0.025061015         0.036841221
     0.315754384         0.669279695         0.480299771
     0.781284630         0.614331126         0.747809172
