O  C                                    
1.0
       13.6750001907         0.0000000000         0.0000000000
       -6.8375000954        11.8428975619         0.0000000000
        0.0000000000         0.0000000000        14.7670001984
    S    H
    1    2
Direct
     0.756453276         0.412441134         0.708845556
     0.868615329         0.466728985         0.689861357
     0.729528964         0.419501930         0.621599972
