O  C                                    
   1.00000000000000     
    13.6750001907000005    0.0000000000000000    0.0000000000000000
    -6.8375000954000003   11.8428975618999992    0.0000000000000000
     0.0000000000000000    0.0000000000000000   14.7670001983999999
   O    Si   Al   Ag   S 
    74    33     3     3     1
Direct
  0.8986561546919566  0.0988878416090250  0.1175150585216044
  0.1071888078503973  0.8883798761937534  0.8820679668853449
  0.8944842562537340  0.7950351843421293  0.1284400326609822
  0.0955819850191778  0.1982551902950359  0.8660326181554977
  0.1956815322608335  0.1040963389671140  0.1164744368889319
  0.8024605507774935  0.9048247063288899  0.8812344525091693
  0.5548518086683828  0.4268292861676268  0.4559147978811349
  0.7642079194737508  0.2342159790734828  0.2196750815695424
  0.5669141246864895  0.1421525337401982  0.4709414096749540
  0.7667123171282459  0.5398711910000820  0.2068995275619113
  0.8642718737930533  0.4257095380113257  0.4643104583860996
  0.4654448868922165  0.2372028001293084  0.1831779941925178
  0.2318744483770803  0.7766576042149578  0.7758186007058462
  0.4243648903080020  0.5698518674022784  0.5247053587730653
  0.2313875809550973  0.4486987845560999  0.7715541373393942
  0.4293442028863729  0.8520335982957038  0.5306209532550190
  0.5313735076507257  0.7575218594498200  0.8055053372421774
  0.1252351893555254  0.5606056770774842  0.5326208546817327
  0.9777220425180163  0.3168580384478290  0.1616688784808168
  0.0217798568806906  0.6695076579915066  0.8412083830905782
  0.6788829075186333  0.6743303115202292  0.1738557504672608
  0.3135997564410677  0.3169244833066502  0.8191561299628003
  0.3187248045378177  0.0160670785821557  0.1784807851742289
  0.6643831103832633  0.9813763173913382  0.8266233243302259
  0.3255686608561953  0.9876723784648077  0.8379752808539361
  0.6776832045273629  0.0047800982325275  0.1625198223975997
  0.6712845230102252  0.6737842729897571  0.8132080561412426
  0.3325066756458246  0.3240096135796505  0.1576938005554630
  0.0167976213834702  0.3377076422676150  0.8315971597996233
  0.9877570062126300  0.6713789864222797  0.1741440503419080
  0.6465612037282973  0.6406637215453515  0.5053211338198084
  0.3429668350689262  0.9939094162936694  0.4745806932770472
  0.9950253431452946  0.3381776671568690  0.4985456628073300
  0.3370469646235274  0.3506157931954620  0.4815445688260836
  0.9865005115022568  0.6430533109810056  0.5054702103125397
  0.6504356605574517  0.0080228922595724  0.5149531877565041
  0.1177900278905799  0.2437583423239538  0.1296160762466048
  0.8880352722500100  0.7517908765269886  0.8548989847583802
  0.7623701436387450  0.8794681454163605  0.1116784056166068
  0.2272133673650785  0.1080840325579608  0.8703334211373476
  0.1133152498533306  0.8829662094923673  0.1268445862711612
  0.8757247308249484  0.1242612606370437  0.8608907424822314
  0.7745338715979259  0.5565891751764087  0.4683497283987634
  0.5362355151885824  0.0875535280960492  0.1748723227783236
  0.4154399787495608  0.2101462193481282  0.4677189949287805
  0.9020311724149697  0.4538447939218271  0.1954231057923238
  0.7845211781422909  0.2068967689743639  0.4517596552341275
  0.5468039740032299  0.4570950474180587  0.1960347795786302
  0.4485468940883055  0.8958849206041999  0.8070920420800098
  0.2093438472017338  0.4269301520743891  0.5430447018702101
  0.1231798363603780  0.5566148091340365  0.8024875126502187
  0.5792431005178080  0.7879989406019996  0.5201783677934486
  0.4497809280548199  0.5359954119542578  0.8014617381385468
  0.2026891664504331  0.7770100520346518  0.5450376967175246
  0.9995609650301353  0.2614394630139241  0.9952348094407278
  0.9899067916345644  0.7276470169854545  0.0031671815825538
  0.7338971770153866  0.7141447433869244 -0.0000147981982732
  0.2557799483339842  0.2656295803810965  0.9917545928581685
  0.2709530553352735  1.0038933617932351  0.0041105459213732
  0.6617711261640637  0.5906160340706832  0.3350728498044736
  0.6310340755140696  0.0491269208693984  0.3416812003969282
  0.4416217981482347  0.1097328126648049  0.3249861258055833
  0.9198490116892178  0.5842979713068951  0.3361700686952230
  0.9395725205724093  0.3484481873169241  0.3306185096487672
  0.4049540231567347  0.3226817982758765  0.3225325175633769
  0.3585434802551946  0.9508144424332776  0.6666731262611645
  0.3550193944009539  0.4100517393978617  0.6548285577762440
  0.0571540449268294  0.4089232237054893  0.6656925698237147
  0.5755043578854414  0.8971670418367200  0.6672101974622492
  0.5666153759662148  0.6602178563440610  0.6617179094242888
  0.0546579273163701  0.6391983388651938  0.6705886811485109
  0.7308835917745247  0.0115019682980414  0.9941456618761009
  0.7548412179945821  0.4421237461210087  0.6883474050490102
  0.7396186294193643  0.2551225264306386  0.6692358214238631
  0.9968169894890060  0.2294438670863263  0.1017470762932247
  1.0017447873770171  0.7613053048200954  0.8967100615513194
  0.7664455029733858  0.7642259215569006  0.1002767752282878
  0.2224694768478507  0.2219693552627702  0.8878998026424750
  0.2240644240751010  0.0024686323817912  0.1063847517460393
  0.7705578509855006  1.0016001310411031  0.8896372620505117
  0.2319606917313627  0.9963080024451052  0.8986590995578362
  0.7691779846801999  0.9988271511607083  0.0990848055208749
  0.2255937557883450  0.2336161887585484  0.0985382338024767
  0.9972204215786855  0.2284606442403753  0.8897600577617493
  0.9952113077651977  0.7690765659827599  0.1074614580891661
  0.6592789997702878  0.5530054142242306  0.4391122608454571
  0.4405715725407661  0.1103946085119732  0.4352621061500085
  0.8930067006462642  0.5614610576594800  0.2282204285535753
  0.8932239590260221  0.3278307557218239  0.4337683836082399
  0.4381547457536252  0.3348218303832806  0.2157331954121136
  0.8914630938208526  0.3345067758128386  0.2265569422391643
  0.4285178768160728  0.3262216213078572  0.4303890345485448
  0.4411586640338059  0.1126570223649399  0.2162843311929501
  0.8863408249366547  0.5515665140143846  0.4412994788349533
  0.6645175038867236  0.5653561771309317  0.2275883241168140
  0.6564577416850274  0.1007725394270437  0.4418025783620944
  0.3410375608034792  0.9043321653062711  0.7677079648070645
  0.3319437138767288  0.4371394392894730  0.5524779015535038
  0.1083882925284636  0.4378084638495986  0.7684463352989326
  0.5583982845126207  0.8891029123285891  0.5581649358102785
  0.5553219669865299  0.6578721719372737  0.7714272328174546
  0.0935457801335945  0.6595503302297191  0.5641231799204005
  0.5558843609047639  0.6658096714035235  0.5536727078955308
  0.1106138580163641  0.6637378160365566  0.7720050249352396
  0.0949241504770787  0.4314753031178464  0.5601271336080659
  0.5546089583557966  0.8825920152121433  0.7750736936310070
  0.3374582947782785  0.4275596059863722  0.7620498981235933
  0.7730729308517351  0.7667093769025318  0.8917533602912635
  0.6560890670611633  0.0959197324387155  0.2311847627120126
  0.3322118534156721  0.9001206552080598  0.5562940694087884
  0.5603575594631863  0.0224038984121315  0.0371317931421523
  0.3202450431162286  0.6725421272359143  0.4790757474132295
  0.7832023803865553  0.6016333053220765  0.7545414335523799
  0.7974603284282247  0.3651201612148468  0.7102289644540042
 
  0.00000000E+00  0.00000000E+00  0.00000000E+00
  0.00000000E+00  0.00000000E+00  0.00000000E+00
  0.00000000E+00  0.00000000E+00  0.00000000E+00
  0.00000000E+00  0.00000000E+00  0.00000000E+00
  0.00000000E+00  0.00000000E+00  0.00000000E+00
  0.00000000E+00  0.00000000E+00  0.00000000E+00
  0.00000000E+00  0.00000000E+00  0.00000000E+00
  0.00000000E+00  0.00000000E+00  0.00000000E+00
  0.00000000E+00  0.00000000E+00  0.00000000E+00
  0.00000000E+00  0.00000000E+00  0.00000000E+00
  0.00000000E+00  0.00000000E+00  0.00000000E+00
  0.00000000E+00  0.00000000E+00  0.00000000E+00
  0.00000000E+00  0.00000000E+00  0.00000000E+00
  0.00000000E+00  0.00000000E+00  0.00000000E+00
  0.00000000E+00  0.00000000E+00  0.00000000E+00
  0.00000000E+00  0.00000000E+00  0.00000000E+00
  0.00000000E+00  0.00000000E+00  0.00000000E+00
  0.00000000E+00  0.00000000E+00  0.00000000E+00
  0.00000000E+00  0.00000000E+00  0.00000000E+00
  0.00000000E+00  0.00000000E+00  0.00000000E+00
  0.00000000E+00  0.00000000E+00  0.00000000E+00
  0.00000000E+00  0.00000000E+00  0.00000000E+00
  0.00000000E+00  0.00000000E+00  0.00000000E+00
  0.00000000E+00  0.00000000E+00  0.00000000E+00
  0.00000000E+00  0.00000000E+00  0.00000000E+00
  0.00000000E+00  0.00000000E+00  0.00000000E+00
  0.00000000E+00  0.00000000E+00  0.00000000E+00
  0.00000000E+00  0.00000000E+00  0.00000000E+00
  0.00000000E+00  0.00000000E+00  0.00000000E+00
  0.00000000E+00  0.00000000E+00  0.00000000E+00
  0.00000000E+00  0.00000000E+00  0.00000000E+00
  0.00000000E+00  0.00000000E+00  0.00000000E+00
  0.00000000E+00  0.00000000E+00  0.00000000E+00
  0.00000000E+00  0.00000000E+00  0.00000000E+00
  0.00000000E+00  0.00000000E+00  0.00000000E+00
  0.00000000E+00  0.00000000E+00  0.00000000E+00
  0.00000000E+00  0.00000000E+00  0.00000000E+00
  0.00000000E+00  0.00000000E+00  0.00000000E+00
  0.00000000E+00  0.00000000E+00  0.00000000E+00
  0.00000000E+00  0.00000000E+00  0.00000000E+00
  0.00000000E+00  0.00000000E+00  0.00000000E+00
  0.00000000E+00  0.00000000E+00  0.00000000E+00
  0.00000000E+00  0.00000000E+00  0.00000000E+00
  0.00000000E+00  0.00000000E+00  0.00000000E+00
  0.00000000E+00  0.00000000E+00  0.00000000E+00
  0.00000000E+00  0.00000000E+00  0.00000000E+00
  0.00000000E+00  0.00000000E+00  0.00000000E+00
  0.00000000E+00  0.00000000E+00  0.00000000E+00
  0.00000000E+00  0.00000000E+00  0.00000000E+00
  0.00000000E+00  0.00000000E+00  0.00000000E+00
  0.00000000E+00  0.00000000E+00  0.00000000E+00
  0.00000000E+00  0.00000000E+00  0.00000000E+00
  0.00000000E+00  0.00000000E+00  0.00000000E+00
  0.00000000E+00  0.00000000E+00  0.00000000E+00
  0.00000000E+00  0.00000000E+00  0.00000000E+00
  0.00000000E+00  0.00000000E+00  0.00000000E+00
  0.00000000E+00  0.00000000E+00  0.00000000E+00
  0.00000000E+00  0.00000000E+00  0.00000000E+00
  0.00000000E+00  0.00000000E+00  0.00000000E+00
  0.00000000E+00  0.00000000E+00  0.00000000E+00
  0.00000000E+00  0.00000000E+00  0.00000000E+00
  0.00000000E+00  0.00000000E+00  0.00000000E+00
  0.00000000E+00  0.00000000E+00  0.00000000E+00
  0.00000000E+00  0.00000000E+00  0.00000000E+00
  0.00000000E+00  0.00000000E+00  0.00000000E+00
  0.00000000E+00  0.00000000E+00  0.00000000E+00
  0.00000000E+00  0.00000000E+00  0.00000000E+00
  0.00000000E+00  0.00000000E+00  0.00000000E+00
  0.00000000E+00  0.00000000E+00  0.00000000E+00
  0.00000000E+00  0.00000000E+00  0.00000000E+00
  0.00000000E+00  0.00000000E+00  0.00000000E+00
  0.00000000E+00  0.00000000E+00  0.00000000E+00
  0.00000000E+00  0.00000000E+00  0.00000000E+00
  0.00000000E+00  0.00000000E+00  0.00000000E+00
  0.00000000E+00  0.00000000E+00  0.00000000E+00
  0.00000000E+00  0.00000000E+00  0.00000000E+00
  0.00000000E+00  0.00000000E+00  0.00000000E+00
  0.00000000E+00  0.00000000E+00  0.00000000E+00
  0.00000000E+00  0.00000000E+00  0.00000000E+00
  0.00000000E+00  0.00000000E+00  0.00000000E+00
  0.00000000E+00  0.00000000E+00  0.00000000E+00
  0.00000000E+00  0.00000000E+00  0.00000000E+00
  0.00000000E+00  0.00000000E+00  0.00000000E+00
  0.00000000E+00  0.00000000E+00  0.00000000E+00
  0.00000000E+00  0.00000000E+00  0.00000000E+00
  0.00000000E+00  0.00000000E+00  0.00000000E+00
  0.00000000E+00  0.00000000E+00  0.00000000E+00
  0.00000000E+00  0.00000000E+00  0.00000000E+00
  0.00000000E+00  0.00000000E+00  0.00000000E+00
  0.00000000E+00  0.00000000E+00  0.00000000E+00
  0.00000000E+00  0.00000000E+00  0.00000000E+00
  0.00000000E+00  0.00000000E+00  0.00000000E+00
  0.00000000E+00  0.00000000E+00  0.00000000E+00
  0.00000000E+00  0.00000000E+00  0.00000000E+00
  0.00000000E+00  0.00000000E+00  0.00000000E+00
  0.00000000E+00  0.00000000E+00  0.00000000E+00
  0.00000000E+00  0.00000000E+00  0.00000000E+00
  0.00000000E+00  0.00000000E+00  0.00000000E+00
  0.00000000E+00  0.00000000E+00  0.00000000E+00
  0.00000000E+00  0.00000000E+00  0.00000000E+00
  0.00000000E+00  0.00000000E+00  0.00000000E+00
  0.00000000E+00  0.00000000E+00  0.00000000E+00
  0.00000000E+00  0.00000000E+00  0.00000000E+00
  0.00000000E+00  0.00000000E+00  0.00000000E+00
  0.00000000E+00  0.00000000E+00  0.00000000E+00
  0.00000000E+00  0.00000000E+00  0.00000000E+00
  0.00000000E+00  0.00000000E+00  0.00000000E+00
  0.00000000E+00  0.00000000E+00  0.00000000E+00
  0.00000000E+00  0.00000000E+00  0.00000000E+00
  0.00000000E+00  0.00000000E+00  0.00000000E+00
  0.00000000E+00  0.00000000E+00  0.00000000E+00
  0.00000000E+00  0.00000000E+00  0.00000000E+00
  0.00000000E+00  0.00000000E+00  0.00000000E+00
  0.00000000E+00  0.00000000E+00  0.00000000E+00
