O  C 
1.0
       13.6750001907         0.0000000000         0.0000000000
       -6.8375000954        11.8428975619         0.0000000000
        0.0000000000         0.0000000000        14.7670001984
    O   Si   Al   Ag    S
   74   33    3    3    1
Direct
     0.897714972         0.096482001         0.119563997
     0.102263004         0.885155022         0.881776989
     0.891359985         0.791204989         0.124651000
     0.092768997         0.195093006         0.868301988
     0.194005996         0.102969997         0.116858996
     0.795979023         0.898953021         0.881235003
     0.551051974         0.423400015         0.459739000
     0.761740983         0.233931005         0.219862998
     0.564229012         0.140637994         0.471597999
     0.763933003         0.535542011         0.202978998
     0.862438977         0.423290014         0.466811001
     0.463878006         0.235998005         0.183733001
     0.226891994         0.773159027         0.769912004
     0.423256010         0.567119002         0.525125027
     0.227799997         0.445455998         0.772614002
     0.425577998         0.847779989         0.532734990
     0.528907001         0.754212022         0.805414975
     0.122377999         0.558506012         0.532977998
     0.975714028         0.314134002         0.163075000
     0.019142000         0.667284012         0.841345012
     0.678853989         0.673961997         0.178735003
     0.309989989         0.312959999         0.818486989
     0.317025006         0.014823000         0.178301007
     0.659106016         0.977854013         0.829625010
     0.320499986         0.981759012         0.838940024
     0.676751971         0.004354000         0.163525000
     0.666308999         0.667934000         0.815389991
     0.330363005         0.322423995         0.158549994
     0.013747000         0.333876014         0.832022011
     0.986001015         0.671136975         0.177577004
     0.645034015         0.639317989         0.504222989
     0.340853989         0.990028977         0.474108994
     0.993582010         0.335595012         0.498414010
     0.333232999         0.347386003         0.481451005
     0.984636009         0.641396999         0.504347980
     0.646021008         0.005140000         0.515465975
     0.116651997         0.243393004         0.128233001
     0.882512987         0.745916009         0.862200975
     0.760697007         0.877727985         0.115011998
     0.224674001         0.104916997         0.870747030
     0.110068999         0.882286012         0.130289003
     0.873014987         0.119126998         0.860525012
     0.770205975         0.549660027         0.475035995
     0.534596026         0.086413004         0.174853995
     0.411163002         0.206322998         0.467774004
     0.903002977         0.453377008         0.196146995
     0.781615019         0.204640001         0.454414010
     0.544390023         0.456061989         0.195915997
     0.442761004         0.889357984         0.806909025
     0.208120003         0.427123994         0.541563988
     0.120082997         0.553641021         0.801885009
     0.576928973         0.785676003         0.521664023
     0.445771009         0.532325029         0.800876021
     0.199066997         0.775416017         0.549857974
     0.993780971         0.257353008         0.995639980
     0.994412005         0.725103021         0.005249000
     0.722922981         0.709958017         0.002639000
     0.255822986         0.264068007         0.991702020
     0.265700012         0.999198020         0.004631000
     0.663478971         0.583030999         0.336522013
     0.629482985         0.048673000         0.342128009
     0.439514995         0.107542001         0.325015008
     0.910467982         0.579370975         0.336908996
     0.935773015         0.345844001         0.331817001
     0.404794008         0.322144002         0.323204011
     0.358521014         0.951583982         0.667114019
     0.350634992         0.406459987         0.654712021
     0.055670999         0.405836999         0.665556014
     0.573982000         0.895864010         0.668488979
     0.565945983         0.657078981         0.662122011
     0.045609999         0.631326020         0.670490026
     0.730325997         0.009441000         0.995634973
     0.856500030         0.529030025         0.677200019
     0.868439972         0.388029993         0.629660010
     0.994472027         0.227157995         0.102109998
     0.998103023         0.757367015         0.898672998
     0.762391984         0.761480987         0.101851001
     0.219953001         0.218814000         0.888365984
     0.221114993         0.000444000         0.107147999
     0.767055988         0.997663021         0.890538990
     0.227228999         0.991927981         0.899049997
     0.768038988         0.997072995         0.100809000
     0.224281996         0.232417002         0.098343000
     0.993389010         0.224614993         0.890218019
     0.994081974         0.767090976         0.108318001
     0.656890988         0.548460007         0.441498995
     0.437561005         0.107382998         0.435184985
     0.889952004         0.558866978         0.227963001
     0.890722990         0.324948013         0.435227007
     0.436376005         0.333480000         0.216022000
     0.889600992         0.332803011         0.227142006
     0.425318986         0.323208988         0.431253999
     0.439301014         0.111135997         0.216192007
     0.882619977         0.548128009         0.442368001
     0.663374007         0.562011003         0.227930993
     0.653602004         0.098788999         0.442602992
     0.337206990         0.900924981         0.767075002
     0.329320997         0.434655994         0.552339971
     0.104360998         0.433966994         0.768782973
     0.555314004         0.886301994         0.559616983
     0.551627994         0.653963983         0.771692991
     0.090360001         0.656786025         0.564420998
     0.554457009         0.663464010         0.554140985
     0.106055997         0.659850001         0.772017002
     0.092649996         0.429149985         0.560411990
     0.551069975         0.879320979         0.776215971
     0.333121002         0.423700005         0.762070000
     0.768257022         0.761605024         0.894726992
     0.654350996         0.095224999         0.231471002
     0.329849005         0.898001015         0.557636976
     0.563221991         0.026060000         0.036189001
     0.318154991         0.668793023         0.480816007
     0.752583981         0.582024992         0.755747974
     0.904980004         0.473030001         0.677200019
