O  C                                    
   1.00000000000000     
    13.6750001907000005    0.0000000000000000    0.0000000000000000
    -6.8375000954000003   11.8428975618999992    0.0000000000000000
     0.0000000000000000    0.0000000000000000   14.7670001983999999
   O    Si   Al   Ag
    73    33     3     3
Direct
  0.8964790213908944  0.0949005605269159  0.1197364457842571
  0.1014155371398190  0.8867951752436656  0.8803793239212804
  0.8906935716620142  0.7924308620538824  0.1299857619479685
  0.0932058435693788  0.1940620504939254  0.8672198360854290
  0.1928501482794023  0.1013916445965453  0.1170444937865154
  0.7990541192119640  0.9014349356920768  0.8827036973782176
  0.5520243716849343  0.4241820828168158  0.4583028044636770
  0.7610697789913309  0.2320284300673991  0.2196822173572629
  0.5638201862919042  0.1397207971089696  0.4711610488651269
  0.7637983631327581  0.5363501953618636  0.2044483705109806
  0.8629189869715380  0.4239358200798596  0.4608758276224006
  0.4617643496483310  0.2336539349798156  0.1840714610888868
  0.2288827759119348  0.7718361228411169  0.7772521261164008
  0.4229656781800833  0.5679150872335936  0.5253170419244555
  0.2309450582968634  0.4495832436833965  0.7753458674625998
  0.4267724865065825  0.8490626057280936  0.5315722768731734
  0.5310670913081685  0.7545869960710212  0.8056087425026918
  0.1206773938091394  0.5571004448208525  0.5338427874903355
  0.9742658348190856  0.3135336835020366  0.1610906878259443
  0.0191542993047535  0.6674449825378004  0.8419981592702349
  0.6752442543857458  0.6712232729154970  0.1754818571856242
  0.3110351493954528  0.3146707932383010  0.8193533172192972
  0.3157834859450692  0.0126409073359946  0.1779757833297009
  0.6613022433197460  0.9778694482560247  0.8280028427813024
  0.3211957154970856  0.9820100198584895  0.8391926130063628
  0.6750846551604082  0.0026849874492169  0.1629868197833085
  0.6708497524188599  0.6715403222456205  0.8127683703715155
  0.3293091362011261  0.3210520315412576  0.1587080866101412
  0.0157883854277579  0.3344029230792102  0.8327202925488549
  0.9844827966119896  0.6679001047664636  0.1729465012953184
  0.6449933721210462  0.6397027266576067  0.5033748954376432
  0.3401106277274191  0.9912689233190277  0.4760747028026663
  0.9921621048551882  0.3348671711780033  0.4990251691697372
  0.3344612322951886  0.3481591632476637  0.4820871354113170
  0.9845661977347371  0.6417750053344530  0.5044761444123539
  0.6474564312166347  0.0060948856258671  0.5160276723110581
  0.1153629705265612  0.2414712708718757  0.1292643423706732
  0.8822021664676882  0.7459253654381165  0.8542845531671883
  0.7575516632380405  0.8758169742478810  0.1115461936823637
  0.2264956867365874  0.1060956227909709  0.8698520118100508
  0.1093212653726995  0.8803290866541077  0.1285926913482529
  0.8739859673734939  0.1200882094936602  0.8594165539979410
  0.7719584826197741  0.5537354576586014  0.4699741298536468
  0.5333145167377369  0.0847810003575426  0.1756466962518972
  0.4120853825602819  0.2072063710184237  0.4677492378022389
  0.9008138299194983  0.4515258198688398  0.1977881624897139
  0.7814146799356123  0.2047018948808288  0.4531528798482323
  0.5439089901806395  0.4536828560657176  0.1947026339246567
  0.4452904540552317  0.8909843711522543  0.8077785553851683
  0.2077081953236943  0.4268995061748702  0.5397603642792910
  0.1176399240715225  0.5523409420843519  0.8023263858758488
  0.5776077741160938  0.7863367568642685  0.5207115525354161
  0.4495501998495407  0.5328309456542725  0.8006047317640976
  0.2004650370658333  0.7735003162245302  0.5443012974888061
  0.9943804571227947  0.2552270314554378  0.9954636049155010
  0.9855842815381517  0.7276154607280531  0.0030725142628210
  0.7303566080179232  0.7099338657686659  0.0016261586322276
  0.2544599097906565  0.2627787868404376  0.9921359243840567
  0.2646096770732292  0.9984935636846930  0.0041406099614452
  0.6593482651509062  0.5843326525631329  0.3349101883833528
  0.6288103128584926  0.0469142096463795  0.3423795475181392
  0.4370794226119735  0.1051775712779104  0.3255214680542539
  0.9151238999788025  0.5844883000859162  0.3358952110420750
  0.9371257099279445  0.3420894017117462  0.3307671249561704
  0.4041181388991437  0.3218883534875724  0.3232237068779591
  0.3549848155523765  0.9463096811897669  0.6678274866698299
  0.3496396961518863  0.4077796480802761  0.6550752361436711
  0.0583080687207224  0.4040324358958178  0.6660922121255836
  0.5734542998186188  0.8943795925057403  0.6679612900445810
  0.5677654054188972  0.6582530488991296  0.6610502595344901
  0.0523859485650072  0.6395633744694527  0.6706848153991717
  0.7303281544057950  0.0109678309335680  0.9948512390531075
  0.7924905549103829  0.5111058592020638  0.6615197961089634
  0.9936090262777719  0.2256696102106218  0.1021481727306791
  0.9986507964230048  0.7586850391244214  0.8963762287520940
  0.7625457180044709  0.7610226481710792  0.1020170759236435
  0.2206722651471140  0.2193244708070277  0.8882423002507756
  0.2203041103092357 -0.0007903408378216  0.1068836352957326
  0.7683578644919701  0.9994569116345056  0.8903218433324377
  0.2278314258703443  0.9927384391354721  0.8983869877221508
  0.7667091270947243  0.9964824669157870  0.1000354072865473
  0.2230956132280236  0.2309744485792958  0.0988334907909951
  0.9946819546186024  0.2245600585513166  0.8897990994499337
  0.9915285379644343  0.7668055395228979  0.1082512160771819
  0.6568460495019418  0.5495300171827809  0.4396503797467467
  0.4372196115557359  0.1073285751996276  0.4358309778759232
  0.8899759349123550  0.5587675257517458  0.2281479813487216
  0.8908931161731199  0.3247988054307856  0.4340057933015988
  0.4353474547435432  0.3319496002674932  0.2161367990670830
  0.8889277817856008  0.3311044285405383  0.2271940792617110
  0.4260991316612951  0.3239110193788531  0.4312410397326557
  0.4376527228936975  0.1091072279690243  0.2168334523087562
  0.8839188120325865  0.5495274156776235  0.4412186633615109
  0.6615951973940621  0.5610782294205672  0.2271349142649368
  0.6537821092329423  0.0987080924663693  0.4424733643704179
  0.3374710329188071  0.8993930761747744  0.7687018911836467
  0.3289881511068328  0.4352778025132520  0.5521329100456672
  0.1058041107047049  0.4345643381017736  0.7692095770537483
  0.5559234724978935  0.8867949415532895  0.5588292742951184
  0.5534182797362558  0.6547549273667216  0.7701813718856320
  0.0902098574575172  0.6568856744005480  0.5642810092298705
  0.5544911494123019  0.6639164699779562  0.5528865204913861
  0.1065984997980958  0.6600071011983094  0.7721000412009588
  0.0920011327941089  0.4283239833675807  0.5604051705626898
  0.5522361826683806  0.8795121872162697  0.7756954934390653
  0.3344622212205803  0.4253866900824614  0.7626701300460607
  0.7695453266325282  0.7642148425496259  0.8944842584515746
  0.6534163346192188  0.0936632826772377  0.2318611315840476
  0.3292802796661632  0.8967812972707653  0.5570926321148819
  0.5610274510297476  0.0250610158678342  0.0368412196075519
  0.3157543888046365  0.6692797096652492  0.4802997639869602
  0.7812846155270522  0.6143311295010028  0.7478091736719910
 
  0.00000000E+00  0.00000000E+00  0.00000000E+00
  0.00000000E+00  0.00000000E+00  0.00000000E+00
  0.00000000E+00  0.00000000E+00  0.00000000E+00
  0.00000000E+00  0.00000000E+00  0.00000000E+00
  0.00000000E+00  0.00000000E+00  0.00000000E+00
  0.00000000E+00  0.00000000E+00  0.00000000E+00
  0.00000000E+00  0.00000000E+00  0.00000000E+00
  0.00000000E+00  0.00000000E+00  0.00000000E+00
  0.00000000E+00  0.00000000E+00  0.00000000E+00
  0.00000000E+00  0.00000000E+00  0.00000000E+00
  0.00000000E+00  0.00000000E+00  0.00000000E+00
  0.00000000E+00  0.00000000E+00  0.00000000E+00
  0.00000000E+00  0.00000000E+00  0.00000000E+00
  0.00000000E+00  0.00000000E+00  0.00000000E+00
  0.00000000E+00  0.00000000E+00  0.00000000E+00
  0.00000000E+00  0.00000000E+00  0.00000000E+00
  0.00000000E+00  0.00000000E+00  0.00000000E+00
  0.00000000E+00  0.00000000E+00  0.00000000E+00
  0.00000000E+00  0.00000000E+00  0.00000000E+00
  0.00000000E+00  0.00000000E+00  0.00000000E+00
  0.00000000E+00  0.00000000E+00  0.00000000E+00
  0.00000000E+00  0.00000000E+00  0.00000000E+00
  0.00000000E+00  0.00000000E+00  0.00000000E+00
  0.00000000E+00  0.00000000E+00  0.00000000E+00
  0.00000000E+00  0.00000000E+00  0.00000000E+00
  0.00000000E+00  0.00000000E+00  0.00000000E+00
  0.00000000E+00  0.00000000E+00  0.00000000E+00
  0.00000000E+00  0.00000000E+00  0.00000000E+00
  0.00000000E+00  0.00000000E+00  0.00000000E+00
  0.00000000E+00  0.00000000E+00  0.00000000E+00
  0.00000000E+00  0.00000000E+00  0.00000000E+00
  0.00000000E+00  0.00000000E+00  0.00000000E+00
  0.00000000E+00  0.00000000E+00  0.00000000E+00
  0.00000000E+00  0.00000000E+00  0.00000000E+00
  0.00000000E+00  0.00000000E+00  0.00000000E+00
  0.00000000E+00  0.00000000E+00  0.00000000E+00
  0.00000000E+00  0.00000000E+00  0.00000000E+00
  0.00000000E+00  0.00000000E+00  0.00000000E+00
  0.00000000E+00  0.00000000E+00  0.00000000E+00
  0.00000000E+00  0.00000000E+00  0.00000000E+00
  0.00000000E+00  0.00000000E+00  0.00000000E+00
  0.00000000E+00  0.00000000E+00  0.00000000E+00
  0.00000000E+00  0.00000000E+00  0.00000000E+00
  0.00000000E+00  0.00000000E+00  0.00000000E+00
  0.00000000E+00  0.00000000E+00  0.00000000E+00
  0.00000000E+00  0.00000000E+00  0.00000000E+00
  0.00000000E+00  0.00000000E+00  0.00000000E+00
  0.00000000E+00  0.00000000E+00  0.00000000E+00
  0.00000000E+00  0.00000000E+00  0.00000000E+00
  0.00000000E+00  0.00000000E+00  0.00000000E+00
  0.00000000E+00  0.00000000E+00  0.00000000E+00
  0.00000000E+00  0.00000000E+00  0.00000000E+00
  0.00000000E+00  0.00000000E+00  0.00000000E+00
  0.00000000E+00  0.00000000E+00  0.00000000E+00
  0.00000000E+00  0.00000000E+00  0.00000000E+00
  0.00000000E+00  0.00000000E+00  0.00000000E+00
  0.00000000E+00  0.00000000E+00  0.00000000E+00
  0.00000000E+00  0.00000000E+00  0.00000000E+00
  0.00000000E+00  0.00000000E+00  0.00000000E+00
  0.00000000E+00  0.00000000E+00  0.00000000E+00
  0.00000000E+00  0.00000000E+00  0.00000000E+00
  0.00000000E+00  0.00000000E+00  0.00000000E+00
  0.00000000E+00  0.00000000E+00  0.00000000E+00
  0.00000000E+00  0.00000000E+00  0.00000000E+00
  0.00000000E+00  0.00000000E+00  0.00000000E+00
  0.00000000E+00  0.00000000E+00  0.00000000E+00
  0.00000000E+00  0.00000000E+00  0.00000000E+00
  0.00000000E+00  0.00000000E+00  0.00000000E+00
  0.00000000E+00  0.00000000E+00  0.00000000E+00
  0.00000000E+00  0.00000000E+00  0.00000000E+00
  0.00000000E+00  0.00000000E+00  0.00000000E+00
  0.00000000E+00  0.00000000E+00  0.00000000E+00
  0.00000000E+00  0.00000000E+00  0.00000000E+00
  0.00000000E+00  0.00000000E+00  0.00000000E+00
  0.00000000E+00  0.00000000E+00  0.00000000E+00
  0.00000000E+00  0.00000000E+00  0.00000000E+00
  0.00000000E+00  0.00000000E+00  0.00000000E+00
  0.00000000E+00  0.00000000E+00  0.00000000E+00
  0.00000000E+00  0.00000000E+00  0.00000000E+00
  0.00000000E+00  0.00000000E+00  0.00000000E+00
  0.00000000E+00  0.00000000E+00  0.00000000E+00
  0.00000000E+00  0.00000000E+00  0.00000000E+00
  0.00000000E+00  0.00000000E+00  0.00000000E+00
  0.00000000E+00  0.00000000E+00  0.00000000E+00
  0.00000000E+00  0.00000000E+00  0.00000000E+00
  0.00000000E+00  0.00000000E+00  0.00000000E+00
  0.00000000E+00  0.00000000E+00  0.00000000E+00
  0.00000000E+00  0.00000000E+00  0.00000000E+00
  0.00000000E+00  0.00000000E+00  0.00000000E+00
  0.00000000E+00  0.00000000E+00  0.00000000E+00
  0.00000000E+00  0.00000000E+00  0.00000000E+00
  0.00000000E+00  0.00000000E+00  0.00000000E+00
  0.00000000E+00  0.00000000E+00  0.00000000E+00
  0.00000000E+00  0.00000000E+00  0.00000000E+00
  0.00000000E+00  0.00000000E+00  0.00000000E+00
  0.00000000E+00  0.00000000E+00  0.00000000E+00
  0.00000000E+00  0.00000000E+00  0.00000000E+00
  0.00000000E+00  0.00000000E+00  0.00000000E+00
  0.00000000E+00  0.00000000E+00  0.00000000E+00
  0.00000000E+00  0.00000000E+00  0.00000000E+00
  0.00000000E+00  0.00000000E+00  0.00000000E+00
  0.00000000E+00  0.00000000E+00  0.00000000E+00
  0.00000000E+00  0.00000000E+00  0.00000000E+00
  0.00000000E+00  0.00000000E+00  0.00000000E+00
  0.00000000E+00  0.00000000E+00  0.00000000E+00
  0.00000000E+00  0.00000000E+00  0.00000000E+00
  0.00000000E+00  0.00000000E+00  0.00000000E+00
  0.00000000E+00  0.00000000E+00  0.00000000E+00
  0.00000000E+00  0.00000000E+00  0.00000000E+00
  0.00000000E+00  0.00000000E+00  0.00000000E+00
  0.00000000E+00  0.00000000E+00  0.00000000E+00
  0.00000000E+00  0.00000000E+00  0.00000000E+00
