O  C                                    
1.0
       13.6750001907         0.0000000000         0.0000000000
       -6.8375000954        11.8428975619         0.0000000000
        0.0000000000         0.0000000000        14.7670001984
    S    C    H
    1    2    6
Direct
     0.765770197         0.486775368         0.650732934
     0.859063685         0.432138652         0.671118736
     0.626322687         0.363591254         0.651906073
     0.878873408         0.408387810         0.605909050
     0.824258983         0.360998064         0.718313575
     0.935497522         0.502459288         0.699590087
     0.626497805         0.296347946         0.691995203
     0.569006264         0.388398886         0.682564795
     0.601039469         0.336236805         0.581942201
