O  C                                    
   1.00000000000000     
    13.6750001907000005    0.0000000000000000    0.0000000000000000
    -6.8375000954000003   11.8428975618999992    0.0000000000000000
     0.0000000000000000    0.0000000000000000   14.7670001983999999
   O    Si   Al   Ag
    73    33     3     3
Direct
  0.8964790213908955  0.0949005605269164  0.1197364457842554
  0.1014155371398218  0.8867951752436625  0.8803793239212823
  0.8906935716620126  0.7924308620538838  0.1299857619479710
  0.0932058435693790  0.1940620504939261  0.8672198360854324
  0.1928501482794047  0.1013916445965464  0.1170444937865156
  0.7990541192119665  0.9014349356920803  0.8827036973782185
  0.5520243716849365  0.4241820828168130  0.4583028044636777
  0.7610697789913274  0.2320284300674018  0.2196822173572599
  0.5638201862919061  0.1397207971089713  0.4711610488651274
  0.7637983631327572  0.5363501953618623  0.2044483705109812
  0.8629189869715361  0.4239358200798620  0.4608758276224023
  0.4617643496483339  0.2336539349798130  0.1840714610888838
  0.2288827759119343  0.7718361228411155  0.7772521261164016
  0.4229656781800841  0.5679150872335939  0.5253170419244526
  0.2309450582968609  0.4495832436833993  0.7753458674625975
  0.4267724865065858  0.8490626057280934  0.5315722768731703
  0.5310670913081665  0.7545869960710192  0.8056087425026917
  0.1206773938091388  0.5571004448208541  0.5338427874903360
  0.9742658348190858  0.3135336835020368  0.1610906878259470
  0.0191542993047520  0.6674449825378019  0.8419981592702328
  0.6752442543857455  0.6712232729154977  0.1754818571856234
  0.3110351493954511  0.3146707932382995  0.8193533172192957
  0.3157834859450688  0.0126409073359923  0.1779757833296998
  0.6613022433197457  0.9778694482560226  0.8280028427813022
  0.3211957154970833  0.9820100198584925  0.8391926130063609
  0.6750846551604113  0.0026849874492143  0.1629868197833062
  0.6708497524188601  0.6715403222456189  0.8127683703715149
  0.3293091362011253  0.3210520315412566  0.1587080866101402
  0.0157883854277614  0.3344029230792103  0.8327202925488564
  0.9844827966119922  0.6679001047664670  0.1729465012953213
  0.6449933721210428  0.6397027266576032  0.5033748954376449
  0.3401106277274195  0.9912689233190264  0.4760747028026628
  0.9921621048551899  0.3348671711780042  0.4990251691697338
  0.3344612322951903  0.3481591632476650  0.4820871354113194
  0.9845661977347362  0.6417750053344520  0.5044761444123509
  0.6474564312166322  0.0060948856258705  0.5160276723110613
  0.1153629705265615  0.2414712708718767  0.1292643423706750
  0.8822021664676853  0.7459253654381186  0.8542845531671901
  0.7575516632380399  0.8758169742478827  0.1115461936823650
  0.2264956867365839  0.1060956227909742  0.8698520118100532
  0.1093212653726994  0.8803290866541076  0.1285926913482527
  0.8739859673734927  0.1200882094936588  0.8594165539979386
  0.7719584826197732  0.5537354576586040  0.4699741298536466
  0.5333145167377396  0.0847810003575447  0.1756466962518957
  0.4120853825602850  0.2072063710184224  0.4677492378022379
  0.9008138299194997  0.4515258198688414  0.1977881624897151
  0.7814146799356152  0.2047018948808272  0.4531528798482327
  0.5439089901806398  0.4536828560657185  0.1947026339246563
  0.4452904540552325  0.8909843711522569  0.8077785553851697
  0.2077081953236970  0.4268995061748697  0.5397603642792888
  0.1176399240715256  0.5523409420843493  0.8023263858758511
  0.5776077741160961  0.7863367568642659  0.5207115525354169
  0.4495501998495399  0.5328309456542755  0.8006047317640963
  0.2004650370658325  0.7735003162245278  0.5443012974888077
  0.9943804571227943  0.2552270314554406  0.9954636049154999
  0.9855842815381521  0.7276154607280532  0.0030725142628185
  0.7303566080179209  0.7099338657686687  0.0016261586322273
  0.2544599097906541  0.2627787868404354  0.9921359243840584
  0.2646096770732314  0.9984935636846899  0.0041406099614463
  0.6593482651509035  0.5843326525631340  0.3349101883833541
  0.6288103128584908  0.0469142096463813  0.3423795475181421
  0.4370794226119727  0.1051775712779133  0.3255214680542551
  0.9151238999788021  0.5844883000859156  0.3358952110420717
  0.9371257099279475  0.3420894017117462  0.3307671249561679
  0.4041181388991433  0.3218883534875729  0.3232237068779611
  0.3549848155523776  0.9463096811897671  0.6678274866698288
  0.3496396961518897  0.4077796480802789  0.6550752361436736
  0.0583080687207200  0.4040324358958145  0.6660922121255837
  0.5734542998186214  0.8943795925057429  0.6679612900445804
  0.5677654054188963  0.6582530488991267  0.6610502595344911
  0.0523859485650107  0.6395633744694535  0.6706848153991700
  0.7303281544057967  0.0109678309335663  0.9948512390531050
  0.7924905549103798  0.5111058592020612  0.6615197961089621
  0.9936090262777739  0.2256696102106233  0.1021481727306792
  0.9986507964230071  0.7586850391244226  0.8963762287520964
  0.7625457180044677  0.7610226481710782  0.1020170759236407
  0.2206722651471154  0.2193244708070310  0.8882423002507736
  0.2203041103092360  0.9992096591621760  0.1068836352957305
  0.7683578644919677  0.9994569116345033  0.8903218433324369
  0.2278314258703418  0.9927384391354721  0.8983869877221480
  0.7667091270947211  0.9964824669157863  0.1000354072865477
  0.2230956132280255  0.2309744485792962  0.0988334907909945
  0.9946819546185992  0.2245600585513188  0.8897990994499310
  0.9915285379644345  0.7668055395228990  0.1082512160771785
  0.6568460495019437  0.5495300171827822  0.4396503797467446
  0.4372196115557330  0.1073285751996309  0.4358309778759235
  0.8899759349123570  0.5587675257517475  0.2281479813487195
  0.8908931161731175  0.3247988054307882  0.4340057933016013
  0.4353474547435425  0.3319496002674924  0.2161367990670797
  0.8889277817856041  0.3311044285405416  0.2271940792617144
  0.4260991316612959  0.3239110193788548  0.4312410397326545
  0.4376527228936951  0.1091072279690266  0.2168334523087552
  0.8839188120325900  0.5495274156776233  0.4412186633615107
  0.6615951973940639  0.5610782294205663  0.2271349142649370
  0.6537821092329423  0.0987080924663672  0.4424733643704144
  0.3374710329188062  0.8993930761747748  0.7687018911836461
  0.3289881511068344  0.4352778025132551  0.5521329100456640
  0.1058041107047032  0.4345643381017723  0.7692095770537506
  0.5559234724978950  0.8867949415532905  0.5588292742951211
  0.5534182797362561  0.6547549273667244  0.7701813718856343
  0.0902098574575163  0.6568856744005487  0.5642810092298731
  0.5544911494122999  0.6639164699779556  0.5528865204913842
  0.1065984997980962  0.6600071011983104  0.7721000412009573
  0.0920011327941097  0.4283239833675836  0.5604051705626887
  0.5522361826683806  0.8795121872162710  0.7756954934390663
  0.3344622212205834  0.4253866900824619  0.7626701300460610
  0.7695453266325316  0.7642148425496273  0.8944842584515769
  0.6534163346192159  0.0936632826772410  0.2318611315840471
  0.3292802796661647  0.8967812972707634  0.5570926321148804
  0.5610274510297444  0.0250610158678342  0.0368412196075525
  0.3157543888046348  0.6692797096652470  0.4802997639869631
  0.7812846155270492  0.6143311295010037  0.7478091736719890
 
             NaN             NaN             NaN
             NaN             NaN             NaN
             NaN             NaN             NaN
             NaN             NaN             NaN
             NaN             NaN             NaN
             NaN             NaN             NaN
             NaN             NaN             NaN
             NaN             NaN             NaN
             NaN             NaN             NaN
             NaN             NaN             NaN
             NaN             NaN             NaN
             NaN             NaN             NaN
             NaN             NaN             NaN
             NaN             NaN             NaN
             NaN             NaN             NaN
             NaN             NaN             NaN
             NaN             NaN             NaN
             NaN             NaN             NaN
             NaN             NaN             NaN
             NaN             NaN             NaN
             NaN             NaN             NaN
             NaN             NaN             NaN
             NaN             NaN             NaN
             NaN             NaN             NaN
             NaN             NaN             NaN
             NaN             NaN             NaN
             NaN             NaN             NaN
             NaN             NaN             NaN
             NaN             NaN             NaN
             NaN             NaN             NaN
             NaN             NaN             NaN
             NaN             NaN             NaN
             NaN             NaN             NaN
             NaN             NaN             NaN
             NaN             NaN             NaN
             NaN             NaN             NaN
             NaN             NaN             NaN
             NaN             NaN             NaN
             NaN             NaN             NaN
             NaN             NaN             NaN
             NaN             NaN             NaN
             NaN             NaN             NaN
             NaN             NaN             NaN
             NaN             NaN             NaN
             NaN             NaN             NaN
             NaN             NaN             NaN
             NaN             NaN             NaN
             NaN             NaN             NaN
             NaN             NaN             NaN
             NaN             NaN             NaN
             NaN             NaN             NaN
             NaN             NaN             NaN
             NaN             NaN             NaN
             NaN             NaN             NaN
             NaN             NaN             NaN
             NaN             NaN             NaN
             NaN             NaN             NaN
             NaN             NaN             NaN
             NaN             NaN             NaN
             NaN             NaN             NaN
             NaN             NaN             NaN
             NaN             NaN             NaN
             NaN             NaN             NaN
             NaN             NaN             NaN
             NaN             NaN             NaN
             NaN             NaN             NaN
             NaN             NaN             NaN
             NaN             NaN             NaN
             NaN             NaN             NaN
             NaN             NaN             NaN
             NaN             NaN             NaN
             NaN             NaN             NaN
             NaN             NaN             NaN
             NaN             NaN             NaN
             NaN             NaN             NaN
             NaN             NaN             NaN
             NaN             NaN             NaN
             NaN             NaN             NaN
             NaN             NaN             NaN
             NaN             NaN             NaN
             NaN             NaN             NaN
             NaN             NaN             NaN
             NaN             NaN             NaN
             NaN             NaN             NaN
             NaN             NaN             NaN
             NaN             NaN             NaN
             NaN             NaN             NaN
             NaN             NaN             NaN
             NaN             NaN             NaN
             NaN             NaN             NaN
             NaN             NaN             NaN
             NaN             NaN             NaN
             NaN             NaN             NaN
             NaN             NaN             NaN
             NaN             NaN             NaN
             NaN             NaN             NaN
             NaN             NaN             NaN
             NaN             NaN             NaN
             NaN             NaN             NaN
             NaN             NaN             NaN
             NaN             NaN             NaN
             NaN             NaN             NaN
             NaN             NaN             NaN
             NaN             NaN             NaN
             NaN             NaN             NaN
             NaN             NaN             NaN
             NaN             NaN             NaN
             NaN             NaN             NaN
             NaN             NaN             NaN
             NaN             NaN             NaN
             NaN             NaN             NaN
             NaN             NaN             NaN
