O2                                      
   1.00000000000000     
    13.6750001907000005    0.0000000000000000    0.0000000000000000
    -6.8375000954000003   11.8428975618999992    0.0000000000000000
     0.0000000000000000    0.0000000000000000   14.7670001983999999
   O    S 
     2     1
Direct
  0.8373914857935668  0.4980301785481421  0.6824007661912544
  0.7912489031477900  0.6375955311246018  0.6149839926720273
  0.7963564650586428  0.5347640613272597  0.6068218151367186
 
  0.00000000E+00  0.00000000E+00  0.00000000E+00
  0.00000000E+00  0.00000000E+00  0.00000000E+00
  0.00000000E+00  0.00000000E+00  0.00000000E+00
