O2                                      
1.0
       13.6750001907         0.0000000000         0.0000000000
       -6.8375000954        11.8428975619         0.0000000000
        0.0000000000         0.0000000000        14.7670001984
    O    S
    2    1
Direct
     0.835416973         0.514427781         0.681434214
     0.794790030         0.632981002         0.621385992
     0.794789851         0.522980988         0.601386368
