O  C                                    
   1.00000000000000     
    13.6750001907000005    0.0000000000000000    0.0000000000000000
    -6.8375000954000003   11.8428975618999992    0.0000000000000000
     0.0000000000000000    0.0000000000000000   14.7670001983999999
   O    Si   Al   Ag   S    C 
    73    33     3     3     1     1
Direct
  0.8993496457237637  0.0975428820805320  0.1180262169051215
  0.1052428355317484  0.8882380816169784  0.8789983782644206
  0.8941427330938757  0.7937145340953842  0.1293988519716802
  0.0966536525714028  0.1972869595139441  0.8651755487445990
  0.1970794955922841  0.1041528360650094  0.1145106239915833
  0.8050329601756476  0.9036002078410388  0.8803695732422444
  0.5556169670329940  0.4272688622569440  0.4559340405583833
  0.7641353911541585  0.2337524913433888  0.2172073110440723
  0.5672665998245084  0.1419871495106456  0.4703176089041026
  0.7677851414126738  0.5396646357799016  0.2056174493945705
  0.8640846767048468  0.4256486401272452  0.4608254608353275
  0.4655827965826567  0.2357774742610182  0.1823700279922130
  0.2335009292951570  0.7752518158151970  0.7749957527127573
  0.4252095868981577  0.5696486737479828  0.5235339387260588
  0.2318790794504311  0.4474078022352886  0.7710111070855673
  0.4291447755519002  0.8515136469481696  0.5293644346783822
  0.5301022302401299  0.7554940449315968  0.8034246836739013
  0.1250606622609888  0.5604726839362100  0.5331984239850839
  0.9780375125735175  0.3159983366776772  0.1602589899620727
  0.0246524903241313  0.6686836404052595  0.8425606446858994
  0.6780690789097784  0.6727560919916190  0.1719469006566012
  0.3145133303741466  0.3155821258721746  0.8173753683665399
  0.3189105770090821  0.0150640346129924  0.1773781753850100
  0.6657011051245473  0.9786542560368925  0.8256530441371133
  0.3247461933317221  0.9857657219167003  0.8373506113177550
  0.6780324974836449  0.0041251376638123  0.1609078729563585
  0.6710033715700192  0.6726302747450794  0.8127002205636905
  0.3331517765507066  0.3234617807749319  0.1569101734249605
  0.0181434925550702  0.3370208391092076  0.8316929691167636
  0.9887507707400429  0.6703232499139661  0.1721995445378610
  0.6474422377129451  0.6414658124178207  0.5031199598667838
  0.3432128218042366  0.9942667709480250  0.4748451590502291
  0.9956490297298197  0.3387033695463407  0.4971327147522760
  0.3374673760065009  0.3506150643643767  0.4798363446439006
  0.9862549424373335  0.6424729524778759  0.5050723122986345
  0.6501625777190545  0.0076966530367106  0.5142944078482701
  0.1185521931006405  0.2432262615449759  0.1286086459441521
  0.8861487469376349  0.7449420663765887  0.8528254281672605
  0.7621891453668852  0.8781642371170119  0.1107533796290829
  0.2288092792670632  0.1078664734640210  0.8704619155292355
  0.1127092709068803  0.8831641715815767  0.1284410978963022
  0.8772370236964459  0.1223067152521771  0.8587171339313517
  0.7748035679712214  0.5566516681720808  0.4666049624524792
  0.5360970664621082  0.0859356398576004  0.1741838988145682
  0.4168098446875649  0.2106967110691303  0.4668093268997904
  0.9031426241132681  0.4534358179378668  0.1956851967252914
  0.7845275561409149  0.2071259576853199  0.4531046024849686
  0.5478972607328366  0.4555573366050441  0.1936683681884447
  0.4501091505011501  0.8964574707119494  0.8071743098073068
  0.2100635973053669  0.4277894501211098  0.5406193143612833
  0.1242692620270060  0.5554710096440671  0.8006416736990228
  0.5794781325195130  0.7878940405585374  0.5194749072050471
  0.4504088195084089  0.5343994167008419  0.7995458616393389
  0.2023485909397160  0.7768332290935450  0.5443913399692776
  0.9987881911694262  0.2583220650200272  0.9943328776979157
  0.9910752837104058  0.7300985698126076  0.0025789379465806
  0.7363013385498481  0.7135465015301491  0.9989200747889971
  0.2572544583408445  0.2665365080182175  0.9905870535064277
  0.2681739718585716 -0.0007377950168291  0.0032015731164225
  0.6611143708420539  0.5893195542404296  0.3329684983775897
  0.6329653278389803  0.0501109249289037  0.3407292295034571
  0.4413191536217113  0.1082821973049126  0.3243302691917044
  0.9213504958493207  0.5865375405471355  0.3349090626653825
  0.9386523250288581  0.3448799181503026  0.3294191010213208
  0.4070769459143395  0.3232868190030891  0.3213955546369738
  0.3597862167060871  0.9502031357316416  0.6663081531649075
  0.3546370659513076  0.4089203420944468  0.6530801861786852
  0.0581871129329481  0.4063457997547670  0.6647733691003108
  0.5750824471210165  0.8970643813410613  0.6663421142125654
  0.5680850042231108  0.6592806034936911  0.6603165831058075
  0.0548193603195430  0.6404689105866115  0.6706091886316756
  0.7332102272331088  0.0109329953447067  0.9928169251630230
  0.7537567750468659  0.2817672423901952  0.7610373592410409
  0.9971208642775559  0.2280601715846348  0.1009640218237242
  0.0022769574792874  0.7601862545820219  0.8955967212219523
  0.7668367360864488  0.7633008291944737  0.0993498619307768
  0.2236422555416958  0.2216997691731527  0.8869417625278937
  0.2238358403412217  0.0013763600290169  0.1057053567939366
  0.7724993783924959  0.0001089967522235  0.8883493781796987
  0.2309032743609261  0.9945093870152004  0.8975805313168048
  0.7700423564551645  0.9980024156410179  0.0980911539168547
  0.2265318930441173  0.2336092700967980  0.0971852512213197
  0.9978054933682595  0.2270364682057258  0.8885913081301842
  0.9955342488282838  0.7691671678118237  0.1073877390864509
  0.6596750882708304  0.5534238649095897  0.4371214417436125
  0.4407379546249980  0.1100289515657703  0.4345643521137301
  0.8941110627080542  0.5613867507966054  0.2271673356254708
  0.8934217112732439  0.3274175193807024  0.4327650594101883
  0.4389692778571636  0.3339581734480411  0.2143609053457424
  0.8916523818901045  0.3332675170458865  0.2252706232178833
  0.4294001826421308  0.3265418778075634  0.4293103287865921
  0.4412082926721707  0.1112600530266074  0.2155081726333004
  0.8871928581182520  0.5520855162320573  0.4396932039261451
  0.6648967583308426  0.5642539581813681  0.2255207085491668
  0.6570619443989096  0.1007358015968535  0.4410815935942914
  0.3418165743600146  0.9032662770678457  0.7673178463225026
  0.3320629058847419  0.4370057377218738  0.5508917852547162
  0.1084832080531849  0.4360408806932526  0.7674390518505867
  0.5580637986009299  0.8885850884756817  0.5573382869552220
  0.5557004370134202  0.6566379496866719  0.7700995979215938
  0.0932074521454960  0.6593655668654788  0.5641900809839273
  0.5565702854765786  0.6657203202434830  0.5524779424851204
  0.1116953687655843  0.6626910079133004  0.7714502381667649
  0.0950650733843863  0.4310844364462294  0.5595466839562083
  0.5549252300657953  0.8814003380159241  0.7743064863614105
  0.3375960172913568  0.4262647903304898  0.7605744504125592
  0.7736156695726827  0.7648314350895228  0.8902202067929860
  0.6566961733354035  0.0953687251700957  0.2297353601229912
  0.3320612146708504  0.8994842544771263  0.5558816000010819
  0.5620994980005404  0.0224973070925535  0.0355956810862406
  0.3193712594968243  0.6715041190206409  0.4790123283099092
  0.7831863900001415  0.5901924654502140  0.7614784933720264
  0.7031667988050198  0.4240133199668526  0.6666461259153206
  0.7337718846182993  0.3445034478082035  0.7230042667573046
 
  0.00000000E+00  0.00000000E+00  0.00000000E+00
  0.00000000E+00  0.00000000E+00  0.00000000E+00
  0.00000000E+00  0.00000000E+00  0.00000000E+00
  0.00000000E+00  0.00000000E+00  0.00000000E+00
  0.00000000E+00  0.00000000E+00  0.00000000E+00
  0.00000000E+00  0.00000000E+00  0.00000000E+00
  0.00000000E+00  0.00000000E+00  0.00000000E+00
  0.00000000E+00  0.00000000E+00  0.00000000E+00
  0.00000000E+00  0.00000000E+00  0.00000000E+00
  0.00000000E+00  0.00000000E+00  0.00000000E+00
  0.00000000E+00  0.00000000E+00  0.00000000E+00
  0.00000000E+00  0.00000000E+00  0.00000000E+00
  0.00000000E+00  0.00000000E+00  0.00000000E+00
  0.00000000E+00  0.00000000E+00  0.00000000E+00
  0.00000000E+00  0.00000000E+00  0.00000000E+00
  0.00000000E+00  0.00000000E+00  0.00000000E+00
  0.00000000E+00  0.00000000E+00  0.00000000E+00
  0.00000000E+00  0.00000000E+00  0.00000000E+00
  0.00000000E+00  0.00000000E+00  0.00000000E+00
  0.00000000E+00  0.00000000E+00  0.00000000E+00
  0.00000000E+00  0.00000000E+00  0.00000000E+00
  0.00000000E+00  0.00000000E+00  0.00000000E+00
  0.00000000E+00  0.00000000E+00  0.00000000E+00
  0.00000000E+00  0.00000000E+00  0.00000000E+00
  0.00000000E+00  0.00000000E+00  0.00000000E+00
  0.00000000E+00  0.00000000E+00  0.00000000E+00
  0.00000000E+00  0.00000000E+00  0.00000000E+00
  0.00000000E+00  0.00000000E+00  0.00000000E+00
  0.00000000E+00  0.00000000E+00  0.00000000E+00
  0.00000000E+00  0.00000000E+00  0.00000000E+00
  0.00000000E+00  0.00000000E+00  0.00000000E+00
  0.00000000E+00  0.00000000E+00  0.00000000E+00
  0.00000000E+00  0.00000000E+00  0.00000000E+00
  0.00000000E+00  0.00000000E+00  0.00000000E+00
  0.00000000E+00  0.00000000E+00  0.00000000E+00
  0.00000000E+00  0.00000000E+00  0.00000000E+00
  0.00000000E+00  0.00000000E+00  0.00000000E+00
  0.00000000E+00  0.00000000E+00  0.00000000E+00
  0.00000000E+00  0.00000000E+00  0.00000000E+00
  0.00000000E+00  0.00000000E+00  0.00000000E+00
  0.00000000E+00  0.00000000E+00  0.00000000E+00
  0.00000000E+00  0.00000000E+00  0.00000000E+00
  0.00000000E+00  0.00000000E+00  0.00000000E+00
  0.00000000E+00  0.00000000E+00  0.00000000E+00
  0.00000000E+00  0.00000000E+00  0.00000000E+00
  0.00000000E+00  0.00000000E+00  0.00000000E+00
  0.00000000E+00  0.00000000E+00  0.00000000E+00
  0.00000000E+00  0.00000000E+00  0.00000000E+00
  0.00000000E+00  0.00000000E+00  0.00000000E+00
  0.00000000E+00  0.00000000E+00  0.00000000E+00
  0.00000000E+00  0.00000000E+00  0.00000000E+00
  0.00000000E+00  0.00000000E+00  0.00000000E+00
  0.00000000E+00  0.00000000E+00  0.00000000E+00
  0.00000000E+00  0.00000000E+00  0.00000000E+00
  0.00000000E+00  0.00000000E+00  0.00000000E+00
  0.00000000E+00  0.00000000E+00  0.00000000E+00
  0.00000000E+00  0.00000000E+00  0.00000000E+00
  0.00000000E+00  0.00000000E+00  0.00000000E+00
  0.00000000E+00  0.00000000E+00  0.00000000E+00
  0.00000000E+00  0.00000000E+00  0.00000000E+00
  0.00000000E+00  0.00000000E+00  0.00000000E+00
  0.00000000E+00  0.00000000E+00  0.00000000E+00
  0.00000000E+00  0.00000000E+00  0.00000000E+00
  0.00000000E+00  0.00000000E+00  0.00000000E+00
  0.00000000E+00  0.00000000E+00  0.00000000E+00
  0.00000000E+00  0.00000000E+00  0.00000000E+00
  0.00000000E+00  0.00000000E+00  0.00000000E+00
  0.00000000E+00  0.00000000E+00  0.00000000E+00
  0.00000000E+00  0.00000000E+00  0.00000000E+00
  0.00000000E+00  0.00000000E+00  0.00000000E+00
  0.00000000E+00  0.00000000E+00  0.00000000E+00
  0.00000000E+00  0.00000000E+00  0.00000000E+00
  0.00000000E+00  0.00000000E+00  0.00000000E+00
  0.00000000E+00  0.00000000E+00  0.00000000E+00
  0.00000000E+00  0.00000000E+00  0.00000000E+00
  0.00000000E+00  0.00000000E+00  0.00000000E+00
  0.00000000E+00  0.00000000E+00  0.00000000E+00
  0.00000000E+00  0.00000000E+00  0.00000000E+00
  0.00000000E+00  0.00000000E+00  0.00000000E+00
  0.00000000E+00  0.00000000E+00  0.00000000E+00
  0.00000000E+00  0.00000000E+00  0.00000000E+00
  0.00000000E+00  0.00000000E+00  0.00000000E+00
  0.00000000E+00  0.00000000E+00  0.00000000E+00
  0.00000000E+00  0.00000000E+00  0.00000000E+00
  0.00000000E+00  0.00000000E+00  0.00000000E+00
  0.00000000E+00  0.00000000E+00  0.00000000E+00
  0.00000000E+00  0.00000000E+00  0.00000000E+00
  0.00000000E+00  0.00000000E+00  0.00000000E+00
  0.00000000E+00  0.00000000E+00  0.00000000E+00
  0.00000000E+00  0.00000000E+00  0.00000000E+00
  0.00000000E+00  0.00000000E+00  0.00000000E+00
  0.00000000E+00  0.00000000E+00  0.00000000E+00
  0.00000000E+00  0.00000000E+00  0.00000000E+00
  0.00000000E+00  0.00000000E+00  0.00000000E+00
  0.00000000E+00  0.00000000E+00  0.00000000E+00
  0.00000000E+00  0.00000000E+00  0.00000000E+00
  0.00000000E+00  0.00000000E+00  0.00000000E+00
  0.00000000E+00  0.00000000E+00  0.00000000E+00
  0.00000000E+00  0.00000000E+00  0.00000000E+00
  0.00000000E+00  0.00000000E+00  0.00000000E+00
  0.00000000E+00  0.00000000E+00  0.00000000E+00
  0.00000000E+00  0.00000000E+00  0.00000000E+00
  0.00000000E+00  0.00000000E+00  0.00000000E+00
  0.00000000E+00  0.00000000E+00  0.00000000E+00
  0.00000000E+00  0.00000000E+00  0.00000000E+00
  0.00000000E+00  0.00000000E+00  0.00000000E+00
  0.00000000E+00  0.00000000E+00  0.00000000E+00
  0.00000000E+00  0.00000000E+00  0.00000000E+00
  0.00000000E+00  0.00000000E+00  0.00000000E+00
  0.00000000E+00  0.00000000E+00  0.00000000E+00
  0.00000000E+00  0.00000000E+00  0.00000000E+00
  0.00000000E+00  0.00000000E+00  0.00000000E+00
  0.00000000E+00  0.00000000E+00  0.00000000E+00
  0.00000000E+00  0.00000000E+00  0.00000000E+00
