Gamma points only
 1
reciprocal
0   0   0   1
