O  C                                    
   1.00000000000000     
    13.6750001907000005    0.0000000000000000    0.0000000000000000
    -6.8375000954000003   11.8428975618999992    0.0000000000000000
     0.0000000000000000    0.0000000000000000   14.7670001983999999
   O    Si   Al   Ag   S    C 
    73    33     3     3     1     1
Direct
  0.8980713728571814  0.0971308529863464  0.1182021013617813
  0.1081099354823394  0.8888330501835853  0.8819805651657759
  0.8941023615198063  0.7949038924055216  0.1285484853440337
  0.0952855521192646  0.1955513968376934  0.8663257022518778
  0.1958821288409780  0.1036491693804180  0.1155095670111450
  0.8010415702321154  0.9031592303849365  0.8813131409867836
  0.5549782760110347  0.4269756031516394  0.4563298044389228
  0.7635542394328496  0.2334645094168550  0.2194544852427427
  0.5673934414611281  0.1422309296744686  0.4712083262881848
  0.7663200491714335  0.5387777735694570  0.2061010685739433
  0.8637197050885845  0.4251489314140784  0.4626264402060798
  0.4650038930038960  0.2363315729504052  0.1834326377368640
  0.2314761564675436  0.7751499047583437  0.7763277715745716
  0.4251401644208386  0.5697422219449564  0.5240577783868048
  0.2328294084809386  0.4508654873506757  0.7739789742982168
  0.4291044479690456  0.8512118402267745  0.5302442073872982
  0.5325518700873886  0.7564872077040548  0.8050431772190692
  0.1240682865238227  0.5599938603625390  0.5334322077043723
  0.9768010373819607  0.3154350371860630  0.1609861806321291
  0.0215501228592814  0.6695039814444783  0.8414020856607252
  0.6784093462223382  0.6733437905519040  0.1732470123397860
  0.3129895094680606  0.3162816546188552  0.8185435233295379
  0.3179940774256806  0.0153990224198282  0.1794015110493845
  0.6644956915093303  0.9809994622523703  0.8258125344174871
  0.3264088186199032  0.9865405416397834  0.8384250761422933
  0.6769795760038519  0.0039388120421080  0.1620227172816726
  0.6723715630716356  0.6725861848669652  0.8121812509920048
  0.3319179748649148  0.3231364980133478  0.1580649144694632
  0.0180356906162373  0.3363871114804908  0.8319024465969278
  0.9872523772368496  0.6706113696680021  0.1733945047473497
  0.6474472654601513  0.6413946405528321  0.5041900723239934
  0.3434550121883007  0.9940896931827652  0.4755452931415860
  0.9948094818130784  0.3378475371751790  0.4983071785544695
  0.3371434622796912  0.3501083168823769  0.4816889254009524
  0.9863202492532039  0.6428968114142606  0.5047003038473861
  0.6501561249520833  0.0080882637097730  0.5155553018811005
  0.1172913434331164  0.2426020385952796  0.1295649407299564
  0.8892037109974069  0.7529448954526003  0.8542305536179100
  0.7605959880097330  0.8778765323738469  0.1103732629887162
  0.2299327193584588  0.1086091096130062  0.8711649723857775
  0.1129002868420557  0.8826692180679530  0.1273145980433270
  0.8758831591584979  0.1227012328015888  0.8594525397535406
  0.7745021973180499  0.5562622968143671  0.4677981151199972
  0.5355278291522154  0.0865222569486335  0.1751396932625013
  0.4162183134494839  0.2103511316722546  0.4680633753694252
  0.9020974025213278  0.4531151199046235  0.1954904324495033
  0.7844731270971934  0.2064310674041963  0.4522904566941079
  0.5464059878895426  0.4562028394680908  0.1953503122598761
  0.4481815612381439  0.8935802906639694  0.8074469883897848
  0.2099611851906431  0.4283731111170326  0.5397633422067472
  0.1207535761805403  0.5549798814206852  0.8016765634464491
  0.5797742303849134  0.7880732999904652  0.5200037677092979
  0.4510883040735862  0.5348849939059122  0.8007326966837880
  0.2024356105657077  0.7763896662528538  0.5443783285105326
  0.9982343686829225  0.2583221851775193  0.9949970652390192
  0.9899278577361770  0.7283443079759522  0.0030244208071508
  0.7342436696891710  0.7126330465293691  0.9994944614074370
  0.2560966774430682  0.2661620647002536  0.9916725444918058
  0.2715192893466067  0.0024068918937274  0.0046697169608478
  0.6614014477106167  0.5895239718252796  0.3343022973750394
  0.6310994781887942  0.0485230272739798  0.3416671243966434
  0.4417045118373011  0.1091693707936301  0.3254442653229930
  0.9196718390848559  0.5845235394943842  0.3354816602583881
  0.9391701432057644  0.3465787363526971  0.3301808388494862
  0.4054447462512343  0.3225489232759884  0.3226701677041959
  0.3587987302791262  0.9491762817501481  0.6671067095944281
  0.3526479831890867  0.4099209551217058  0.6545400743476080
  0.0598499577490088  0.4066862043551467  0.6654782538275370
  0.5753204146250184  0.8970317350293655  0.6671155708684893
  0.5674315548855589  0.6597280540065071  0.6609740556945098
  0.0540690621991260  0.6408147026156925  0.6704340855625261
  0.7312745409147681  0.0119291922505695  0.9936804628495892
  0.7556373255979665  0.4458676081449369  0.6764904458545900
  0.9960631711937111  0.2276775631534491  0.1016722119853668
  0.0024130251340893  0.7619048655995826  0.8966229998083364
  0.7659764606454544  0.7632238011766290  0.0996861020036945
  0.2229905282796523  0.2214836078501321  0.8879608584295156
  0.2239943700076097  0.0017625502785492  0.1065845331348996
  0.7704247231674728  0.0007727393296690  0.8893427670501595
  0.2332125712957804  0.9959796303303392  0.8990994245931461
  0.7685390702933219  0.9978620217825593  0.0987016474052425
  0.2254435343139960  0.2331740346273392  0.0982891571902513
  0.9973050475004186  0.2266577495948709  0.8893944587175682
  0.9948452202985933  0.7689370472113595  0.1074475001152635
  0.6594748512043438  0.5529116039718218  0.4384924085934472
  0.4407807861623141  0.1102570378975471  0.4356537879308036
  0.8927402963980526  0.5607572249797457  0.2276548672303349
  0.8932225927551443  0.3273945942047121  0.4334323266447271
  0.4378725669886876  0.3341377727865122  0.2157067148871548
  0.8910422531997497  0.3334394074374671  0.2262055140368844
  0.4288144348086718  0.3261976361551504  0.4305257115598238
  0.4407172368442787  0.1118864632947663  0.2166960683044081
  0.8863064649836758  0.5512965840468738  0.4405792637844641
  0.6642110826109544  0.5643541834441024  0.2268177375723468
  0.6565578897655868  0.1004168736036775  0.4416118937893998
  0.3407926079186154  0.9024788372966128  0.7681755462180391
  0.3316631338199016  0.4373012701737764  0.5517087540953511
  0.1083650993341436  0.4369023375496823  0.7686006618005337
  0.5580387228005961  0.8884259639031384  0.5579923514379885
  0.5564244942412486  0.6567412764245262  0.7707282148102479
  0.0927807590333387  0.6592832769523582  0.5640941828937187
  0.5564642632014483  0.6656816999579505  0.5530076069535212
  0.1094834958687869  0.6628092684561651  0.7718065894191355
  0.0948914893721593  0.4309834723527786  0.5598808951985319
  0.5544666634944875  0.8810121863300822  0.7750358543012368
  0.3371210443536370  0.4275588335298508  0.7621867904893094
  0.7729441569873003  0.7654097771420538  0.8912904106414530
  0.6556863281728553  0.0950892265354994  0.2309577889067072
  0.3318894205370668  0.8991233191152261  0.5564861389527849
  0.5606183717634750  0.0234069964065569  0.0367013742833322
  0.3189281052202659  0.6712741114646832  0.4792441540982750
  0.7899344089637808  0.6056847920131929  0.7514710018329680
  0.7375508627744907  0.2400765813818424  0.7051387958649968
  0.7475867634172815  0.3562780734188422  0.6893633970144464
 
  0.00000000E+00  0.00000000E+00  0.00000000E+00
  0.00000000E+00  0.00000000E+00  0.00000000E+00
  0.00000000E+00  0.00000000E+00  0.00000000E+00
  0.00000000E+00  0.00000000E+00  0.00000000E+00
  0.00000000E+00  0.00000000E+00  0.00000000E+00
  0.00000000E+00  0.00000000E+00  0.00000000E+00
  0.00000000E+00  0.00000000E+00  0.00000000E+00
  0.00000000E+00  0.00000000E+00  0.00000000E+00
  0.00000000E+00  0.00000000E+00  0.00000000E+00
  0.00000000E+00  0.00000000E+00  0.00000000E+00
  0.00000000E+00  0.00000000E+00  0.00000000E+00
  0.00000000E+00  0.00000000E+00  0.00000000E+00
  0.00000000E+00  0.00000000E+00  0.00000000E+00
  0.00000000E+00  0.00000000E+00  0.00000000E+00
  0.00000000E+00  0.00000000E+00  0.00000000E+00
  0.00000000E+00  0.00000000E+00  0.00000000E+00
  0.00000000E+00  0.00000000E+00  0.00000000E+00
  0.00000000E+00  0.00000000E+00  0.00000000E+00
  0.00000000E+00  0.00000000E+00  0.00000000E+00
  0.00000000E+00  0.00000000E+00  0.00000000E+00
  0.00000000E+00  0.00000000E+00  0.00000000E+00
  0.00000000E+00  0.00000000E+00  0.00000000E+00
  0.00000000E+00  0.00000000E+00  0.00000000E+00
  0.00000000E+00  0.00000000E+00  0.00000000E+00
  0.00000000E+00  0.00000000E+00  0.00000000E+00
  0.00000000E+00  0.00000000E+00  0.00000000E+00
  0.00000000E+00  0.00000000E+00  0.00000000E+00
  0.00000000E+00  0.00000000E+00  0.00000000E+00
  0.00000000E+00  0.00000000E+00  0.00000000E+00
  0.00000000E+00  0.00000000E+00  0.00000000E+00
  0.00000000E+00  0.00000000E+00  0.00000000E+00
  0.00000000E+00  0.00000000E+00  0.00000000E+00
  0.00000000E+00  0.00000000E+00  0.00000000E+00
  0.00000000E+00  0.00000000E+00  0.00000000E+00
  0.00000000E+00  0.00000000E+00  0.00000000E+00
  0.00000000E+00  0.00000000E+00  0.00000000E+00
  0.00000000E+00  0.00000000E+00  0.00000000E+00
  0.00000000E+00  0.00000000E+00  0.00000000E+00
  0.00000000E+00  0.00000000E+00  0.00000000E+00
  0.00000000E+00  0.00000000E+00  0.00000000E+00
  0.00000000E+00  0.00000000E+00  0.00000000E+00
  0.00000000E+00  0.00000000E+00  0.00000000E+00
  0.00000000E+00  0.00000000E+00  0.00000000E+00
  0.00000000E+00  0.00000000E+00  0.00000000E+00
  0.00000000E+00  0.00000000E+00  0.00000000E+00
  0.00000000E+00  0.00000000E+00  0.00000000E+00
  0.00000000E+00  0.00000000E+00  0.00000000E+00
  0.00000000E+00  0.00000000E+00  0.00000000E+00
  0.00000000E+00  0.00000000E+00  0.00000000E+00
  0.00000000E+00  0.00000000E+00  0.00000000E+00
  0.00000000E+00  0.00000000E+00  0.00000000E+00
  0.00000000E+00  0.00000000E+00  0.00000000E+00
  0.00000000E+00  0.00000000E+00  0.00000000E+00
  0.00000000E+00  0.00000000E+00  0.00000000E+00
  0.00000000E+00  0.00000000E+00  0.00000000E+00
  0.00000000E+00  0.00000000E+00  0.00000000E+00
  0.00000000E+00  0.00000000E+00  0.00000000E+00
  0.00000000E+00  0.00000000E+00  0.00000000E+00
  0.00000000E+00  0.00000000E+00  0.00000000E+00
  0.00000000E+00  0.00000000E+00  0.00000000E+00
  0.00000000E+00  0.00000000E+00  0.00000000E+00
  0.00000000E+00  0.00000000E+00  0.00000000E+00
  0.00000000E+00  0.00000000E+00  0.00000000E+00
  0.00000000E+00  0.00000000E+00  0.00000000E+00
  0.00000000E+00  0.00000000E+00  0.00000000E+00
  0.00000000E+00  0.00000000E+00  0.00000000E+00
  0.00000000E+00  0.00000000E+00  0.00000000E+00
  0.00000000E+00  0.00000000E+00  0.00000000E+00
  0.00000000E+00  0.00000000E+00  0.00000000E+00
  0.00000000E+00  0.00000000E+00  0.00000000E+00
  0.00000000E+00  0.00000000E+00  0.00000000E+00
  0.00000000E+00  0.00000000E+00  0.00000000E+00
  0.00000000E+00  0.00000000E+00  0.00000000E+00
  0.00000000E+00  0.00000000E+00  0.00000000E+00
  0.00000000E+00  0.00000000E+00  0.00000000E+00
  0.00000000E+00  0.00000000E+00  0.00000000E+00
  0.00000000E+00  0.00000000E+00  0.00000000E+00
  0.00000000E+00  0.00000000E+00  0.00000000E+00
  0.00000000E+00  0.00000000E+00  0.00000000E+00
  0.00000000E+00  0.00000000E+00  0.00000000E+00
  0.00000000E+00  0.00000000E+00  0.00000000E+00
  0.00000000E+00  0.00000000E+00  0.00000000E+00
  0.00000000E+00  0.00000000E+00  0.00000000E+00
  0.00000000E+00  0.00000000E+00  0.00000000E+00
  0.00000000E+00  0.00000000E+00  0.00000000E+00
  0.00000000E+00  0.00000000E+00  0.00000000E+00
  0.00000000E+00  0.00000000E+00  0.00000000E+00
  0.00000000E+00  0.00000000E+00  0.00000000E+00
  0.00000000E+00  0.00000000E+00  0.00000000E+00
  0.00000000E+00  0.00000000E+00  0.00000000E+00
  0.00000000E+00  0.00000000E+00  0.00000000E+00
  0.00000000E+00  0.00000000E+00  0.00000000E+00
  0.00000000E+00  0.00000000E+00  0.00000000E+00
  0.00000000E+00  0.00000000E+00  0.00000000E+00
  0.00000000E+00  0.00000000E+00  0.00000000E+00
  0.00000000E+00  0.00000000E+00  0.00000000E+00
  0.00000000E+00  0.00000000E+00  0.00000000E+00
  0.00000000E+00  0.00000000E+00  0.00000000E+00
  0.00000000E+00  0.00000000E+00  0.00000000E+00
  0.00000000E+00  0.00000000E+00  0.00000000E+00
  0.00000000E+00  0.00000000E+00  0.00000000E+00
  0.00000000E+00  0.00000000E+00  0.00000000E+00
  0.00000000E+00  0.00000000E+00  0.00000000E+00
  0.00000000E+00  0.00000000E+00  0.00000000E+00
  0.00000000E+00  0.00000000E+00  0.00000000E+00
  0.00000000E+00  0.00000000E+00  0.00000000E+00
  0.00000000E+00  0.00000000E+00  0.00000000E+00
  0.00000000E+00  0.00000000E+00  0.00000000E+00
  0.00000000E+00  0.00000000E+00  0.00000000E+00
  0.00000000E+00  0.00000000E+00  0.00000000E+00
  0.00000000E+00  0.00000000E+00  0.00000000E+00
  0.00000000E+00  0.00000000E+00  0.00000000E+00
  0.00000000E+00  0.00000000E+00  0.00000000E+00
  0.00000000E+00  0.00000000E+00  0.00000000E+00
