O2                                      
   1.00000000000000     
    13.6750001907000005    0.0000000000000000    0.0000000000000000
    -6.8375000954000003   11.8428975618999992    0.0000000000000000
     0.0000000000000000    0.0000000000000000   14.7670001983999999
   O 
     2
Direct
  0.8154168729999967  0.5144277810000020  0.6814342139999994
  0.7947898509999973  0.5229809880000005  0.6013863680000000
 
             NaN             NaN             NaN
             NaN             NaN             NaN
