O  C                                    
   1.00000000000000     
    13.6750001907000005    0.0000000000000000    0.0000000000000000
    -6.8375000954000003   11.8428975618999992    0.0000000000000000
     0.0000000000000000    0.0000000000000000   14.7670001983999999
   O    Si   Al   Ag   S    C 
    73    33     3     3     1     1
Direct
  0.8980713728571840  0.0971308529863494  0.1182021013617785
  0.1081099354823405  0.8888330501835879  0.8819805651657784
  0.8941023615198047  0.7949038924055204  0.1285484853440365
  0.0952855521192678  0.1955513968376933  0.8663257022518774
  0.1958821288409771  0.1036491693804151  0.1155095670111477
  0.8010415702321150  0.9031592303849333  0.8813131409867805
  0.5549782760110333  0.4269756031516419  0.4563298044389257
  0.7635542394328516  0.2334645094168579  0.2194544852427424
  0.5673934414611268  0.1422309296744703  0.4712083262881831
  0.7663200491714338  0.5387777735694562  0.2061010685739458
  0.8637197050885878  0.4251489314140819  0.4626264402060769
  0.4650038930038946  0.2363315729504051  0.1834326377368662
  0.2314761564675432  0.7751499047583410  0.7763277715745689
  0.4251401644208406  0.5697422219449537  0.5240577783868061
  0.2328294084809403  0.4508654873506725  0.7739789742982196
  0.4291044479690473  0.8512118402267715  0.5302442073872969
  0.5325518700873871  0.7564872077040556  0.8050431772190662
  0.1240682865238213  0.5599938603625396  0.5334322077043745
  0.9768010373819639  0.3154350371860645  0.1609861806321295
  0.0215501228592796  0.6695039814444782  0.8414020856607224
  0.6784093462223356  0.6733437905519046  0.1732470123397852
  0.3129895094680601  0.3162816546188530  0.8185435233295371
  0.3179940774256830  0.0153990224198259  0.1794015110493873
  0.6644956915093282  0.9809994622523709  0.8258125344174894
  0.3264088186199057  0.9865405416397801  0.8384250761422908
  0.6769795760038502  0.0039388120421112  0.1620227172816747
  0.6723715630716377  0.6725861848669630  0.8121812509920060
  0.3319179748649165  0.3231364980133475  0.1580649144694639
  0.0180356906162356  0.3363871114804903  0.8319024465969282
  0.9872523772368489  0.6706113696680046  0.1733945047473491
  0.6474472654601525  0.6413946405528352  0.5041900723239928
  0.3434550121882997  0.9940896931827640  0.4755452931415878
  0.9948094818130767  0.3378475371751813  0.4983071785544715
  0.3371434622796886  0.3501083168823771  0.4816889254009525
  0.9863202492532036  0.6428968114142583  0.5047003038473870
  0.6501561249520840  0.0080882637097729  0.5155553018810993
  0.1172913434331161  0.2426020385952772  0.1295649407299532
  0.8892037109974054  0.7529448954525978  0.8542305536179065
  0.7605959880097337  0.8778765323738466  0.1103732629887128
  0.2299327193584600  0.1086091096130068  0.8711649723857756
  0.1129002868420525  0.8826692180679524  0.1273145980433257
  0.8758831591584985  0.1227012328015860  0.8594525397535410
  0.7745021973180487  0.5562622968143656  0.4677981151199989
  0.5355278291522141  0.0865222569486327  0.1751396932625031
  0.4162183134494855  0.2103511316722528  0.4680633753694223
  0.9020974025213246  0.4531151199046210  0.1954904324495012
  0.7844731270971913  0.2064310674041995  0.4522904566941094
  0.5464059878895419  0.4562028394680929  0.1953503122598763
  0.4481815612381423  0.8935802906639689  0.8074469883897867
  0.2099611851906412  0.4283731111170361  0.5397633422067500
  0.1207535761805399  0.5549798814206871  0.8016765634464486
  0.5797742303849114  0.7880732999904660  0.5200037677093006
  0.4510883040735861  0.5348849939059117  0.8007326966837889
  0.2024356105657109  0.7763896662528537  0.5443783285105336
  0.9982343686829226  0.2583221851775186  0.9949970652390173
  0.9899278577361769  0.7283443079759554  0.0030244208071515
  0.7342436696891691  0.7126330465293688 -0.0005055385925613
  0.2560966774430654  0.2661620647002544  0.9916725444918083
  0.2715192893466095  1.0024068918937294  0.0046697169608458
  0.6614014477106184  0.5895239718252775  0.3343022973750379
  0.6310994781887943  0.0485230272739795  0.3416671243966400
  0.4417045118372994  0.1091693707936289  0.3254442653229961
  0.9196718390848571  0.5845235394943837  0.3354816602583909
  0.9391701432057650  0.3465787363526985  0.3301808388494885
  0.4054447462512315  0.3225489232759918  0.3226701677041990
  0.3587987302791286  0.9491762817501471  0.6671067095944309
  0.3526479831890895  0.4099209551217050  0.6545400743476087
  0.0598499577490111  0.4066862043551465  0.6654782538275374
  0.5753204146250198  0.8970317350293672  0.6671155708684916
  0.5674315548855616  0.6597280540065089  0.6609740556945080
  0.0540690621991233  0.6408147026156928  0.6704340855625234
  0.7312745409147676  0.0119291922505679  0.9936804628495858
  0.7556373255979644  0.4458676081449379  0.6764904458545872
  0.9960631711937141  0.2276775631534485  0.1016722119853641
  1.0024130251340906  0.7619048655995855  0.8966229998083358
  0.7659764606454517  0.7632238011766267  0.0996861020036970
  0.2229905282796543  0.2214836078501316  0.8879608584295128
  0.2239943700076087  0.0017625502785470  0.1065845331348961
  0.7704247231674742  1.0007727393296657  0.8893427670501589
  0.2332125712957811  0.9959796303303395  0.8990994245931480
  0.7685390702933230  0.9978620217825559  0.0987016474052451
  0.2254435343139990  0.2331740346273376  0.0982891571902485
  0.9973050475004173  0.2266577495948679  0.8893944587175691
  0.9948452202985960  0.7689370472113617  0.1074475001152659
  0.6594748512043429  0.5529116039718233  0.4384924085934441
  0.4407807861623133  0.1102570378975448  0.4356537879308038
  0.8927402963980521  0.5607572249797423  0.2276548672303315
  0.8932225927551464  0.3273945942047117  0.4334323266447249
  0.4378725669886897  0.3341377727865102  0.2157067148871576
  0.8910422531997498  0.3334394074374674  0.2262055140368874
  0.4288144348086722  0.3261976361551495  0.4305257115598228
  0.4407172368442819  0.1118864632947639  0.2166960683044102
  0.8863064649836740  0.5512965840468714  0.4405792637844645
  0.6642110826109551  0.5643541834441002  0.2268177375723446
  0.6565578897655840  0.1004168736036764  0.4416118937894012
  0.3407926079186128  0.9024788372966155  0.7681755462180390
  0.3316631338199013  0.4373012701737768  0.5517087540953498
  0.1083650993341420  0.4369023375496814  0.7686006618005358
  0.5580387228005980  0.8884259639031418  0.5579923514379856
  0.5564244942412506  0.6567412764245265  0.7707282148102483
  0.0927807590333394  0.6592832769523561  0.5640941828937180
  0.5564642632014458  0.6656816999579485  0.5530076069535179
  0.1094834958687854  0.6628092684561664  0.7718065894191368
  0.0948914893721606  0.4309834723527757  0.5598808951985323
  0.5544666634944870  0.8810121863300824  0.7750358543012388
  0.3371210443536382  0.4275588335298542  0.7621867904893090
  0.7729441569873013  0.7654097771420503  0.8912904106414512
  0.6556863281728541  0.0950892265355005  0.2309577889067048
  0.3318894205370703  0.8991233191152241  0.5564861389527866
  0.5606183717634735  0.0234069964065547  0.0367013742833357
  0.3189281052202675  0.6712741114646823  0.4792441540982744
  0.7899344089637788  0.6056847920131953  0.7514710018329686
  0.7375508627744894  0.2400765813818398  0.7051387958649985
  0.7475867634172835  0.3562780734188395  0.6893633970144477
 
  0.00000000E+00  0.00000000E+00  0.00000000E+00
  0.00000000E+00  0.00000000E+00  0.00000000E+00
  0.00000000E+00  0.00000000E+00  0.00000000E+00
  0.00000000E+00  0.00000000E+00  0.00000000E+00
  0.00000000E+00  0.00000000E+00  0.00000000E+00
  0.00000000E+00  0.00000000E+00  0.00000000E+00
  0.00000000E+00  0.00000000E+00  0.00000000E+00
  0.00000000E+00  0.00000000E+00  0.00000000E+00
  0.00000000E+00  0.00000000E+00  0.00000000E+00
  0.00000000E+00  0.00000000E+00  0.00000000E+00
  0.00000000E+00  0.00000000E+00  0.00000000E+00
  0.00000000E+00  0.00000000E+00  0.00000000E+00
  0.00000000E+00  0.00000000E+00  0.00000000E+00
  0.00000000E+00  0.00000000E+00  0.00000000E+00
  0.00000000E+00  0.00000000E+00  0.00000000E+00
  0.00000000E+00  0.00000000E+00  0.00000000E+00
  0.00000000E+00  0.00000000E+00  0.00000000E+00
  0.00000000E+00  0.00000000E+00  0.00000000E+00
  0.00000000E+00  0.00000000E+00  0.00000000E+00
  0.00000000E+00  0.00000000E+00  0.00000000E+00
  0.00000000E+00  0.00000000E+00  0.00000000E+00
  0.00000000E+00  0.00000000E+00  0.00000000E+00
  0.00000000E+00  0.00000000E+00  0.00000000E+00
  0.00000000E+00  0.00000000E+00  0.00000000E+00
  0.00000000E+00  0.00000000E+00  0.00000000E+00
  0.00000000E+00  0.00000000E+00  0.00000000E+00
  0.00000000E+00  0.00000000E+00  0.00000000E+00
  0.00000000E+00  0.00000000E+00  0.00000000E+00
  0.00000000E+00  0.00000000E+00  0.00000000E+00
  0.00000000E+00  0.00000000E+00  0.00000000E+00
  0.00000000E+00  0.00000000E+00  0.00000000E+00
  0.00000000E+00  0.00000000E+00  0.00000000E+00
  0.00000000E+00  0.00000000E+00  0.00000000E+00
  0.00000000E+00  0.00000000E+00  0.00000000E+00
  0.00000000E+00  0.00000000E+00  0.00000000E+00
  0.00000000E+00  0.00000000E+00  0.00000000E+00
  0.00000000E+00  0.00000000E+00  0.00000000E+00
  0.00000000E+00  0.00000000E+00  0.00000000E+00
  0.00000000E+00  0.00000000E+00  0.00000000E+00
  0.00000000E+00  0.00000000E+00  0.00000000E+00
  0.00000000E+00  0.00000000E+00  0.00000000E+00
  0.00000000E+00  0.00000000E+00  0.00000000E+00
  0.00000000E+00  0.00000000E+00  0.00000000E+00
  0.00000000E+00  0.00000000E+00  0.00000000E+00
  0.00000000E+00  0.00000000E+00  0.00000000E+00
  0.00000000E+00  0.00000000E+00  0.00000000E+00
  0.00000000E+00  0.00000000E+00  0.00000000E+00
  0.00000000E+00  0.00000000E+00  0.00000000E+00
  0.00000000E+00  0.00000000E+00  0.00000000E+00
  0.00000000E+00  0.00000000E+00  0.00000000E+00
  0.00000000E+00  0.00000000E+00  0.00000000E+00
  0.00000000E+00  0.00000000E+00  0.00000000E+00
  0.00000000E+00  0.00000000E+00  0.00000000E+00
  0.00000000E+00  0.00000000E+00  0.00000000E+00
  0.00000000E+00  0.00000000E+00  0.00000000E+00
  0.00000000E+00  0.00000000E+00  0.00000000E+00
  0.00000000E+00  0.00000000E+00  0.00000000E+00
  0.00000000E+00  0.00000000E+00  0.00000000E+00
  0.00000000E+00  0.00000000E+00  0.00000000E+00
  0.00000000E+00  0.00000000E+00  0.00000000E+00
  0.00000000E+00  0.00000000E+00  0.00000000E+00
  0.00000000E+00  0.00000000E+00  0.00000000E+00
  0.00000000E+00  0.00000000E+00  0.00000000E+00
  0.00000000E+00  0.00000000E+00  0.00000000E+00
  0.00000000E+00  0.00000000E+00  0.00000000E+00
  0.00000000E+00  0.00000000E+00  0.00000000E+00
  0.00000000E+00  0.00000000E+00  0.00000000E+00
  0.00000000E+00  0.00000000E+00  0.00000000E+00
  0.00000000E+00  0.00000000E+00  0.00000000E+00
  0.00000000E+00  0.00000000E+00  0.00000000E+00
  0.00000000E+00  0.00000000E+00  0.00000000E+00
  0.00000000E+00  0.00000000E+00  0.00000000E+00
  0.00000000E+00  0.00000000E+00  0.00000000E+00
  0.00000000E+00  0.00000000E+00  0.00000000E+00
  0.00000000E+00  0.00000000E+00  0.00000000E+00
  0.00000000E+00  0.00000000E+00  0.00000000E+00
  0.00000000E+00  0.00000000E+00  0.00000000E+00
  0.00000000E+00  0.00000000E+00  0.00000000E+00
  0.00000000E+00  0.00000000E+00  0.00000000E+00
  0.00000000E+00  0.00000000E+00  0.00000000E+00
  0.00000000E+00  0.00000000E+00  0.00000000E+00
  0.00000000E+00  0.00000000E+00  0.00000000E+00
  0.00000000E+00  0.00000000E+00  0.00000000E+00
  0.00000000E+00  0.00000000E+00  0.00000000E+00
  0.00000000E+00  0.00000000E+00  0.00000000E+00
  0.00000000E+00  0.00000000E+00  0.00000000E+00
  0.00000000E+00  0.00000000E+00  0.00000000E+00
  0.00000000E+00  0.00000000E+00  0.00000000E+00
  0.00000000E+00  0.00000000E+00  0.00000000E+00
  0.00000000E+00  0.00000000E+00  0.00000000E+00
  0.00000000E+00  0.00000000E+00  0.00000000E+00
  0.00000000E+00  0.00000000E+00  0.00000000E+00
  0.00000000E+00  0.00000000E+00  0.00000000E+00
  0.00000000E+00  0.00000000E+00  0.00000000E+00
  0.00000000E+00  0.00000000E+00  0.00000000E+00
  0.00000000E+00  0.00000000E+00  0.00000000E+00
  0.00000000E+00  0.00000000E+00  0.00000000E+00
  0.00000000E+00  0.00000000E+00  0.00000000E+00
  0.00000000E+00  0.00000000E+00  0.00000000E+00
  0.00000000E+00  0.00000000E+00  0.00000000E+00
  0.00000000E+00  0.00000000E+00  0.00000000E+00
  0.00000000E+00  0.00000000E+00  0.00000000E+00
  0.00000000E+00  0.00000000E+00  0.00000000E+00
  0.00000000E+00  0.00000000E+00  0.00000000E+00
  0.00000000E+00  0.00000000E+00  0.00000000E+00
  0.00000000E+00  0.00000000E+00  0.00000000E+00
  0.00000000E+00  0.00000000E+00  0.00000000E+00
  0.00000000E+00  0.00000000E+00  0.00000000E+00
  0.00000000E+00  0.00000000E+00  0.00000000E+00
  0.00000000E+00  0.00000000E+00  0.00000000E+00
  0.00000000E+00  0.00000000E+00  0.00000000E+00
  0.00000000E+00  0.00000000E+00  0.00000000E+00
  0.00000000E+00  0.00000000E+00  0.00000000E+00
  0.00000000E+00  0.00000000E+00  0.00000000E+00
