O  C                                    
   1.00000000000000     
    13.6750001907000005    0.0000000000000000    0.0000000000000000
    -6.8375000954000003   11.8428975618999992    0.0000000000000000
     0.0000000000000000    0.0000000000000000   14.7670001983999999
   O    Si   Al   Ag
    74    33     3     3
Direct
  0.8958458170098851  0.1002101450252297  0.1194938137980373
  0.1037313325695308  0.8888333511125310  0.8767593851779552
  0.8923259989808159  0.7895751663177393  0.1252923340712258
  0.0917402511740661  0.1948229088834736  0.8672132805620976
  0.1935793738759344  0.1021637230145984  0.1151524884496737
  0.7996539193930232  0.9057111127058164  0.8809847208438626
  0.5577752315865325  0.4243056603386606  0.4595956495963094
  0.7627191430259259  0.2276863384056611  0.2172294279309810
  0.5651545213807339  0.1409754664073120  0.4710964528134838
  0.7663622584703944  0.5433170759519541  0.2153566106865696
  0.8608467521128347  0.4253369339061024  0.4626177749338254
  0.4649509277617554  0.2353725097819819  0.1826300340829548
  0.2270963674371629  0.7743064464341316  0.7788179415813943
  0.4248671600136902  0.5703499078971390  0.5269604738796190
  0.2294164391076521  0.4506405306465311  0.7728661022763532
  0.4295757044482897  0.8508028296272485  0.5308937435468764
  0.5297743387160878  0.7562643786053442  0.8053367137015783
  0.1225727327837234  0.5584829897031724  0.5311077030961329
  0.9782749082845754  0.3187463146750744  0.1615276131249956
  0.0145396876367343  0.6679785302414061  0.8372080336538730
  0.6777596281575455  0.6751819573647282  0.1751593735141341
  0.3091992566419393  0.3157917071723304  0.8190140673696504
  0.3175707740795133  0.0149420691857216  0.1770793343539268
  0.6595217708327965  0.9802837645318405  0.8291665140184676
  0.3233168201649477  0.9866313423323732  0.8373295020651739
  0.6733883015614666  0.9977361903774167  0.1642836798998033
  0.6657780284351844  0.6697134370288254  0.8192951996426956
  0.3304071795008028  0.3208436940825337  0.1590217204160425
  0.0151478493175219  0.3360400534689774  0.8312249136006571
  0.9854599827504416  0.6658658005084206  0.1697719234263388
  0.6465576868800369  0.6387135561777484  0.5060532724843512
  0.3418622001729332  0.9925430556720229  0.4746179678169113
  0.9930691407917678  0.3373279240737048  0.4961940623376293
  0.3396287772605788  0.3526925009831174  0.4804129697110682
  0.9855375931323636  0.6431242091057214  0.5028011695945267
  0.6499607662462310  0.0078275652955853  0.5159695824718753
  0.1157566326928006  0.2419418888657887  0.1301749853430110
  0.8826752894053982  0.7493135221963172  0.8619742362787406
  0.7669878716203158  0.8812334790821197  0.1116161795401851
  0.2268317099567483  0.1083860896493860  0.8714381905003421
  0.1108737167378635  0.8813404651644277  0.1307050961216518
  0.8722228685562001  0.1241871852441960  0.8615915500278533
  0.7773494667409437  0.5625781604717801  0.4515473742807501
  0.5342357854713811  0.0842384172664836  0.1749346713320463
  0.4131599098602621  0.2084798883667673  0.4664686355068284
  0.8913167314193373  0.4472142816942153  0.1916107652045440
  0.7822741854748116  0.2063661410027109  0.4515668898571263
  0.5472585245714967  0.4552080083403780  0.1890897837452385
  0.4441151924050573  0.8920804233326507  0.8068827521713047
  0.2085226769581752  0.4268690220639044  0.5386041404156146
  0.1157606320447826  0.5536062741845384  0.8007821829305044
  0.5810469764376762  0.7879078422044543  0.5225444448810705
  0.4467686445620487  0.5336917103464032  0.8004920564840958
  0.2027824589137239  0.7744592436239586  0.5402538520455238
  0.9979245541042658  0.2605216580008118  0.9955489602809777
  0.9973397379645448  0.7299818540263061  0.0018419983493629
  0.7270895380524394  0.7121288193220039  0.0011149222190241
  0.2538824203308465  0.2656164092175430  0.9922017273392640
  0.2639929054074557  0.9971310815957040  0.0033901794271358
  0.6424771525628117  0.5844438857987342  0.3338644502637820
  0.6284428107561340  0.0465138028867571  0.3425728602835392
  0.4397151143150211  0.1074794371934757  0.3245248138399006
  0.9313114658129535  0.5832673392080068  0.3326389116668267
  0.9351246296533731  0.3479147056949472  0.3292260507541727
  0.4119330806119521  0.3273489592304202  0.3221114264492968
  0.3534234425932112  0.9456645169536486  0.6663811981757277
  0.3492947096993220  0.4074321403079608  0.6545059832137810
  0.0575554732093906  0.4058033196909108  0.6638023953412784
  0.5750886365407410  0.8977626297180805  0.6682969366665574
  0.5693834330891647  0.6593719488107865  0.6632731142018500
  0.0550935878101768  0.6415545181304481  0.6676827176593605
  0.7288042625775688  0.0108059239945959  0.9958269515128393
  0.7619282354581856  0.4719210957167235  0.6927935584736673
  0.7986990662167557  0.5444720452269749  0.6309313339017564
  0.9955473006606397  0.2296642185975273  0.1022307024169038
  0.0008490381879867  0.7618695527403645  0.8957529267922055
  0.7649617400678892  0.7630743749813718  0.1007229289164968
  0.2195503181035150  0.2209634715827420  0.8885602360356657
  0.2211511170165821  0.9998846842465454  0.1063680935511613
  0.7672679529260620  0.0021520421308026  0.8907079970419503
  0.2290116703298040  0.9947828590560448  0.8974371270275014
  0.7678156038590060  0.9978968884134432  0.1005387451564630
  0.2236182841804109  0.2320292291720847  0.0988468949141108
  0.9946393244277516  0.2273928570132284  0.8899901291209247
  0.9954169649731526  0.7668570565563257  0.1063993551772882
  0.6562131787529353  0.5520686526943450  0.4364813860602226
  0.4388923622963006  0.1088543048392125  0.4348342100920064
  0.8919851447863962  0.5589868877119173  0.2271380338850548
  0.8904397336287104  0.3275817509900918  0.4329433938784462
  0.4389989078102658  0.3341996972105292  0.2142767317353815
  0.8877949678757417  0.3316725153335796  0.2249333637072866
  0.4308684674002023  0.3269106173325511  0.4305199931529771
  0.4397591764547357  0.1105729214283002  0.2158075554029821
  0.8885397797128789  0.5522260373070154  0.4362302240435199
  0.6599696229553516  0.5643220066557078  0.2278357633274055
  0.6547851008002112  0.0995269877057368  0.4422050092283598
  0.3367857664292870  0.9010953786811413  0.7679281442944372
  0.3307594297297030  0.4370009599698150  0.5515609631602061
  0.1046199273119655  0.4361157828306759  0.7672304089301392
  0.5585170728141335  0.8884692687772784  0.5591127703228267
  0.5528462165930037  0.6557546423741485  0.7724074537624190
  0.0923485006351896  0.6585213482350341  0.5613292692647605
  0.5570728815278230  0.6651783408085379  0.5552434079049675
  0.1056897031731907  0.6619080264168176  0.7701758425618763
  0.0931821890381599  0.4296742805233080  0.5582167202198249
  0.5517235577384056  0.8812157604293560  0.7757539605327182
  0.3329683182931902  0.4262561831521694  0.7617005094575831
  0.7690043055394113  0.7684820788478319  0.8942627786993711
  0.6532233630199329  0.0909245523581816  0.2315304138340508
  0.3310804348896781  0.8976673021017945  0.5552704447632095
  0.5590479722229915  0.0210569276749553  0.0370854790560458
  0.3189650050968567  0.6709965526709141  0.4789074525904837
  0.7600069144498036  0.5682041995811247  0.8098365847631896
 
  0.00000000E+00  0.00000000E+00  0.00000000E+00
  0.00000000E+00  0.00000000E+00  0.00000000E+00
  0.00000000E+00  0.00000000E+00  0.00000000E+00
  0.00000000E+00  0.00000000E+00  0.00000000E+00
  0.00000000E+00  0.00000000E+00  0.00000000E+00
  0.00000000E+00  0.00000000E+00  0.00000000E+00
  0.00000000E+00  0.00000000E+00  0.00000000E+00
  0.00000000E+00  0.00000000E+00  0.00000000E+00
  0.00000000E+00  0.00000000E+00  0.00000000E+00
  0.00000000E+00  0.00000000E+00  0.00000000E+00
  0.00000000E+00  0.00000000E+00  0.00000000E+00
  0.00000000E+00  0.00000000E+00  0.00000000E+00
  0.00000000E+00  0.00000000E+00  0.00000000E+00
  0.00000000E+00  0.00000000E+00  0.00000000E+00
  0.00000000E+00  0.00000000E+00  0.00000000E+00
  0.00000000E+00  0.00000000E+00  0.00000000E+00
  0.00000000E+00  0.00000000E+00  0.00000000E+00
  0.00000000E+00  0.00000000E+00  0.00000000E+00
  0.00000000E+00  0.00000000E+00  0.00000000E+00
  0.00000000E+00  0.00000000E+00  0.00000000E+00
  0.00000000E+00  0.00000000E+00  0.00000000E+00
  0.00000000E+00  0.00000000E+00  0.00000000E+00
  0.00000000E+00  0.00000000E+00  0.00000000E+00
  0.00000000E+00  0.00000000E+00  0.00000000E+00
  0.00000000E+00  0.00000000E+00  0.00000000E+00
  0.00000000E+00  0.00000000E+00  0.00000000E+00
  0.00000000E+00  0.00000000E+00  0.00000000E+00
  0.00000000E+00  0.00000000E+00  0.00000000E+00
  0.00000000E+00  0.00000000E+00  0.00000000E+00
  0.00000000E+00  0.00000000E+00  0.00000000E+00
  0.00000000E+00  0.00000000E+00  0.00000000E+00
  0.00000000E+00  0.00000000E+00  0.00000000E+00
  0.00000000E+00  0.00000000E+00  0.00000000E+00
  0.00000000E+00  0.00000000E+00  0.00000000E+00
  0.00000000E+00  0.00000000E+00  0.00000000E+00
  0.00000000E+00  0.00000000E+00  0.00000000E+00
  0.00000000E+00  0.00000000E+00  0.00000000E+00
  0.00000000E+00  0.00000000E+00  0.00000000E+00
  0.00000000E+00  0.00000000E+00  0.00000000E+00
  0.00000000E+00  0.00000000E+00  0.00000000E+00
  0.00000000E+00  0.00000000E+00  0.00000000E+00
  0.00000000E+00  0.00000000E+00  0.00000000E+00
  0.00000000E+00  0.00000000E+00  0.00000000E+00
  0.00000000E+00  0.00000000E+00  0.00000000E+00
  0.00000000E+00  0.00000000E+00  0.00000000E+00
  0.00000000E+00  0.00000000E+00  0.00000000E+00
  0.00000000E+00  0.00000000E+00  0.00000000E+00
  0.00000000E+00  0.00000000E+00  0.00000000E+00
  0.00000000E+00  0.00000000E+00  0.00000000E+00
  0.00000000E+00  0.00000000E+00  0.00000000E+00
  0.00000000E+00  0.00000000E+00  0.00000000E+00
  0.00000000E+00  0.00000000E+00  0.00000000E+00
  0.00000000E+00  0.00000000E+00  0.00000000E+00
  0.00000000E+00  0.00000000E+00  0.00000000E+00
  0.00000000E+00  0.00000000E+00  0.00000000E+00
  0.00000000E+00  0.00000000E+00  0.00000000E+00
  0.00000000E+00  0.00000000E+00  0.00000000E+00
  0.00000000E+00  0.00000000E+00  0.00000000E+00
  0.00000000E+00  0.00000000E+00  0.00000000E+00
  0.00000000E+00  0.00000000E+00  0.00000000E+00
  0.00000000E+00  0.00000000E+00  0.00000000E+00
  0.00000000E+00  0.00000000E+00  0.00000000E+00
  0.00000000E+00  0.00000000E+00  0.00000000E+00
  0.00000000E+00  0.00000000E+00  0.00000000E+00
  0.00000000E+00  0.00000000E+00  0.00000000E+00
  0.00000000E+00  0.00000000E+00  0.00000000E+00
  0.00000000E+00  0.00000000E+00  0.00000000E+00
  0.00000000E+00  0.00000000E+00  0.00000000E+00
  0.00000000E+00  0.00000000E+00  0.00000000E+00
  0.00000000E+00  0.00000000E+00  0.00000000E+00
  0.00000000E+00  0.00000000E+00  0.00000000E+00
  0.00000000E+00  0.00000000E+00  0.00000000E+00
  0.00000000E+00  0.00000000E+00  0.00000000E+00
  0.00000000E+00  0.00000000E+00  0.00000000E+00
  0.00000000E+00  0.00000000E+00  0.00000000E+00
  0.00000000E+00  0.00000000E+00  0.00000000E+00
  0.00000000E+00  0.00000000E+00  0.00000000E+00
  0.00000000E+00  0.00000000E+00  0.00000000E+00
  0.00000000E+00  0.00000000E+00  0.00000000E+00
  0.00000000E+00  0.00000000E+00  0.00000000E+00
  0.00000000E+00  0.00000000E+00  0.00000000E+00
  0.00000000E+00  0.00000000E+00  0.00000000E+00
  0.00000000E+00  0.00000000E+00  0.00000000E+00
  0.00000000E+00  0.00000000E+00  0.00000000E+00
  0.00000000E+00  0.00000000E+00  0.00000000E+00
  0.00000000E+00  0.00000000E+00  0.00000000E+00
  0.00000000E+00  0.00000000E+00  0.00000000E+00
  0.00000000E+00  0.00000000E+00  0.00000000E+00
  0.00000000E+00  0.00000000E+00  0.00000000E+00
  0.00000000E+00  0.00000000E+00  0.00000000E+00
  0.00000000E+00  0.00000000E+00  0.00000000E+00
  0.00000000E+00  0.00000000E+00  0.00000000E+00
  0.00000000E+00  0.00000000E+00  0.00000000E+00
  0.00000000E+00  0.00000000E+00  0.00000000E+00
  0.00000000E+00  0.00000000E+00  0.00000000E+00
  0.00000000E+00  0.00000000E+00  0.00000000E+00
  0.00000000E+00  0.00000000E+00  0.00000000E+00
  0.00000000E+00  0.00000000E+00  0.00000000E+00
  0.00000000E+00  0.00000000E+00  0.00000000E+00
  0.00000000E+00  0.00000000E+00  0.00000000E+00
  0.00000000E+00  0.00000000E+00  0.00000000E+00
  0.00000000E+00  0.00000000E+00  0.00000000E+00
  0.00000000E+00  0.00000000E+00  0.00000000E+00
  0.00000000E+00  0.00000000E+00  0.00000000E+00
  0.00000000E+00  0.00000000E+00  0.00000000E+00
  0.00000000E+00  0.00000000E+00  0.00000000E+00
  0.00000000E+00  0.00000000E+00  0.00000000E+00
  0.00000000E+00  0.00000000E+00  0.00000000E+00
  0.00000000E+00  0.00000000E+00  0.00000000E+00
  0.00000000E+00  0.00000000E+00  0.00000000E+00
  0.00000000E+00  0.00000000E+00  0.00000000E+00
  0.00000000E+00  0.00000000E+00  0.00000000E+00
  0.00000000E+00  0.00000000E+00  0.00000000E+00
