O  C                                    
   1.00000000000000     
    13.6750001907000005    0.0000000000000000    0.0000000000000000
    -6.8375000954000003   11.8428975618999992    0.0000000000000000
     0.0000000000000000    0.0000000000000000   14.7670001983999999
   O    Si   Al   Ag   S    H 
    72    33     3     3     1     2
Direct
  0.8987313251026592  0.0990308698118838  0.1187669730779319
  0.1014337665712048  0.8872901021208861  0.8812136298813016
  0.8917665752947528  0.7919894342231757  0.1261839692382551
  0.0950226793715814  0.1980710202479230  0.8678065448402350
  0.1961180129296949  0.1052901960847521  0.1175770387583199
  0.8023363851892213  0.9029656166436553  0.8804532170884940
  0.5520431225583096  0.4261599636471587  0.4582936933540012
  0.7633859811767181  0.2360182248703424  0.2202942843455915
  0.5665131108391250  0.1430521262694100  0.4716434814468897
  0.7656266615646885  0.5380867283810815  0.2049357127665843
  0.8639857226637915  0.4247110275925792  0.4659742946163163
  0.4642925578674948  0.2372174051829106  0.1845078183546747
  0.2317910352378334  0.7747119645566656  0.7741420352924351
  0.4242318615173843  0.5688867604032524  0.5254248037041265
  0.2290475765014008  0.4459292049971637  0.7718009969415149
  0.4271005309968743  0.8500090394380138  0.5325571976555565
  0.5298962944124455  0.7567454173099719  0.8062005781661270
  0.1238653658749982  0.5602096581658316  0.5329371640979375
  0.9771576210311963  0.3166701729027750  0.1630148853168052
  0.0230635832212016  0.6692375015751821  0.8431726435646141
  0.6783308064759481  0.6742249110261156  0.1774699805748341
  0.3128032318199274  0.3154774285326312  0.8195712275248894
  0.3182363433871558  0.0159585445969839  0.1784421783023831
  0.6636697863859382  0.9799783540565343  0.8282761846009237
  0.3209836855126156  0.9838617708596971  0.8394873270180554
  0.6777618662113767  0.0067922965494205  0.1627688077817240
  0.6682200317927069  0.6712178263613708  0.8155570334741711
  0.3321869226314860  0.3250573184624628  0.1586768806796357
  0.0150639465957596  0.3361791413244077  0.8322872254565539
  0.9874476568631678  0.6726371619745422  0.1778859415517218
  0.6462920974508535  0.6408740081368833  0.5058991421854415
  0.3428551295849331  0.9930804687872055  0.4756913503485620
  0.9952536136465540  0.3373138200665764  0.4992995165679446
  0.3342813574581243  0.3489664576714731  0.4826205888269470
  0.9850447709711787  0.6423457988710624  0.5067112349443548
  0.6476245036793387  0.0069590778318229  0.5156840409126247
  0.1177838245074980  0.2447192564263005  0.1298379512847845
  0.8816997693534887  0.7421675098998719  0.8614608421701107
  0.7624978963176048  0.8799228764394371  0.1172545846375783
  0.2258579764416311  0.1070354362671111  0.8716849373658420
  0.1104498904145288  0.8844000904739104  0.1318548301773532
  0.8752442452404239  0.1223721289367461  0.8621930368344195
  0.7707549958153663  0.5505566927540002  0.4748938956914444
  0.5356598382669588  0.0881493252912122  0.1756044820112663
  0.4140955686650258  0.2093094914683178  0.4688641085218634
  0.9042792412068081  0.4554647713588409  0.1980326972501345
  0.7836629986783166  0.2062077402309441  0.4548468893618960
  0.5458410195387557  0.4571130238342036  0.1987083034211992
  0.4478621627215418  0.8961292472492133  0.8084896507801744
  0.2092274355472910  0.4280577196266719  0.5445722774363873
  0.1229196351023560  0.5554476799193537  0.8038868017614433
  0.5781542187744648  0.7874124648434915  0.5217446383819322
  0.4473516826497459  0.5349940357862479  0.8023265521055762
  0.2005857875584169  0.7769455446156925  0.5476459613578584
  0.9980216766311969  0.2612631255651507  0.9961664043329463
  0.9955729131496369  0.7282009737541273  0.0058467616021858
  0.7257280817922336  0.7144115276964200  0.0023112565350658
  0.2564187876294284  0.2661562518207674  0.9924485587093201
  0.2646522644984373  0.9990255861306920  0.0050339332298677
  0.6658392117008844  0.5885030829733395  0.3372220313336740
  0.6314139225287079  0.0505998445300406  0.3422478541515090
  0.4400612636051022  0.1088984649700677  0.3257846286613173
  0.9133647769941717  0.5830671626619974  0.3383509167866521
  0.9380888804144121  0.3464941857573223  0.3321773723414481
  0.4031524977581356  0.3218182777970640  0.3238680321470611
  0.3587226312910730  0.9516806714786696  0.6679900798712239
  0.3545903913347317  0.4091370647728496  0.6556036555627500
  0.0558171859218817  0.4088270117101871  0.6664716932358914
  0.5746584822596787  0.8974098615081019  0.6685223403902967
  0.5657845198830955  0.6592033182632662  0.6629102461399299
  0.0523987867556457  0.6357793696618330  0.6719478195765234
  0.7309185102027485  0.0082900227116980  0.9953171606495346
  0.9963540259207804  0.2296665234251236  0.1025633849729743
  0.9995214783291715  0.7583934510344363  0.8988195273059674
  0.7635217319378285  0.7635213767719478  0.1023355453838306
  0.2217755284042653  0.2212806341823494  0.8889398823664507
  0.2218625692075165  0.0018783666646129  0.1078907022832567
  0.7703550721712276  0.9995915024667781  0.8905055483450042
  0.2271050889151667  0.9932299082203073  0.8993445495131382
  0.7692792270608706  0.9987133683402902  0.1007949175939302
  0.2256462059844182  0.2345014274853128  0.0991746807459819
  0.9960112813237885  0.2276384530203046  0.8908364111028106
  0.9950217788813092  0.7689134380380054  0.1093376983771890
  0.6584497021168545  0.5513836454094303  0.4416925847177424
  0.4394996389058505  0.1097748605732320  0.4360054974509637
  0.8917515611183049  0.5613428594753316  0.2296786939307651
  0.8927579479538750  0.3265953809575066  0.4355131830293359
  0.4369741929120465  0.3347111577672308  0.2171254039111119
  0.8912860434188516  0.3347659360807071  0.2278896734764189
  0.4260911665501297  0.3250510083707212  0.4316723553861408
  0.4401187570620877  0.1124920272175416  0.2169437038912392
  0.8841704695223456  0.5499981352595285  0.4436783833790372
  0.6647383450328803  0.5643661421419921  0.2290556789030305
  0.6555656487314181  0.1006835782773621  0.4427609902379075
  0.3397099017051346  0.9033105961088026  0.7686253627553583
  0.3310066256621553  0.4365886207980196  0.5535555665310312
  0.1064217745895846  0.4361938517039476  0.7692623741505571
  0.5565642024768493  0.8880611161109684  0.5596043226281822
  0.5531657774832937  0.6566527566317006  0.7725462112015009
  0.0920326922878303  0.6586971775079036  0.5656178831958556
  0.5553342574799416  0.6652734477582882  0.5548596577139406
  0.1099745666131540  0.6622568716977923  0.7731847919789203
  0.0940164191679500  0.4312932296263057  0.5613339201981304
  0.5536199697957329  0.8822391563311740  0.7764493888978805
  0.3356591422810098  0.4259612179765568  0.7627517660343841
  0.7707525494118670  0.7644833632826504  0.8940675334184078
  0.6558653512833956  0.0974424888269283  0.2316549495987346
  0.3308244844416564  0.8993689150524347  0.5580446999193143
  0.5605444070246151  0.0220833456485110  0.0377320833958592
  0.3186687604368146  0.6709737370129290  0.4806163990029333
  0.7533243244673500  0.5722394028720359  0.7710692560541261
  0.7564532581259940  0.4124411300594488  0.7088455595100740
  0.8686153320184999  0.4667289970920336  0.6898613750835310
  0.7295289462447414  0.4195019350025646  0.6215999793599920
 
  0.00000000E+00  0.00000000E+00  0.00000000E+00
  0.00000000E+00  0.00000000E+00  0.00000000E+00
  0.00000000E+00  0.00000000E+00  0.00000000E+00
  0.00000000E+00  0.00000000E+00  0.00000000E+00
  0.00000000E+00  0.00000000E+00  0.00000000E+00
  0.00000000E+00  0.00000000E+00  0.00000000E+00
  0.00000000E+00  0.00000000E+00  0.00000000E+00
  0.00000000E+00  0.00000000E+00  0.00000000E+00
  0.00000000E+00  0.00000000E+00  0.00000000E+00
  0.00000000E+00  0.00000000E+00  0.00000000E+00
  0.00000000E+00  0.00000000E+00  0.00000000E+00
  0.00000000E+00  0.00000000E+00  0.00000000E+00
  0.00000000E+00  0.00000000E+00  0.00000000E+00
  0.00000000E+00  0.00000000E+00  0.00000000E+00
  0.00000000E+00  0.00000000E+00  0.00000000E+00
  0.00000000E+00  0.00000000E+00  0.00000000E+00
  0.00000000E+00  0.00000000E+00  0.00000000E+00
  0.00000000E+00  0.00000000E+00  0.00000000E+00
  0.00000000E+00  0.00000000E+00  0.00000000E+00
  0.00000000E+00  0.00000000E+00  0.00000000E+00
  0.00000000E+00  0.00000000E+00  0.00000000E+00
  0.00000000E+00  0.00000000E+00  0.00000000E+00
  0.00000000E+00  0.00000000E+00  0.00000000E+00
  0.00000000E+00  0.00000000E+00  0.00000000E+00
  0.00000000E+00  0.00000000E+00  0.00000000E+00
  0.00000000E+00  0.00000000E+00  0.00000000E+00
  0.00000000E+00  0.00000000E+00  0.00000000E+00
  0.00000000E+00  0.00000000E+00  0.00000000E+00
  0.00000000E+00  0.00000000E+00  0.00000000E+00
  0.00000000E+00  0.00000000E+00  0.00000000E+00
  0.00000000E+00  0.00000000E+00  0.00000000E+00
  0.00000000E+00  0.00000000E+00  0.00000000E+00
  0.00000000E+00  0.00000000E+00  0.00000000E+00
  0.00000000E+00  0.00000000E+00  0.00000000E+00
  0.00000000E+00  0.00000000E+00  0.00000000E+00
  0.00000000E+00  0.00000000E+00  0.00000000E+00
  0.00000000E+00  0.00000000E+00  0.00000000E+00
  0.00000000E+00  0.00000000E+00  0.00000000E+00
  0.00000000E+00  0.00000000E+00  0.00000000E+00
  0.00000000E+00  0.00000000E+00  0.00000000E+00
  0.00000000E+00  0.00000000E+00  0.00000000E+00
  0.00000000E+00  0.00000000E+00  0.00000000E+00
  0.00000000E+00  0.00000000E+00  0.00000000E+00
  0.00000000E+00  0.00000000E+00  0.00000000E+00
  0.00000000E+00  0.00000000E+00  0.00000000E+00
  0.00000000E+00  0.00000000E+00  0.00000000E+00
  0.00000000E+00  0.00000000E+00  0.00000000E+00
  0.00000000E+00  0.00000000E+00  0.00000000E+00
  0.00000000E+00  0.00000000E+00  0.00000000E+00
  0.00000000E+00  0.00000000E+00  0.00000000E+00
  0.00000000E+00  0.00000000E+00  0.00000000E+00
  0.00000000E+00  0.00000000E+00  0.00000000E+00
  0.00000000E+00  0.00000000E+00  0.00000000E+00
  0.00000000E+00  0.00000000E+00  0.00000000E+00
  0.00000000E+00  0.00000000E+00  0.00000000E+00
  0.00000000E+00  0.00000000E+00  0.00000000E+00
  0.00000000E+00  0.00000000E+00  0.00000000E+00
  0.00000000E+00  0.00000000E+00  0.00000000E+00
  0.00000000E+00  0.00000000E+00  0.00000000E+00
  0.00000000E+00  0.00000000E+00  0.00000000E+00
  0.00000000E+00  0.00000000E+00  0.00000000E+00
  0.00000000E+00  0.00000000E+00  0.00000000E+00
  0.00000000E+00  0.00000000E+00  0.00000000E+00
  0.00000000E+00  0.00000000E+00  0.00000000E+00
  0.00000000E+00  0.00000000E+00  0.00000000E+00
  0.00000000E+00  0.00000000E+00  0.00000000E+00
  0.00000000E+00  0.00000000E+00  0.00000000E+00
  0.00000000E+00  0.00000000E+00  0.00000000E+00
  0.00000000E+00  0.00000000E+00  0.00000000E+00
  0.00000000E+00  0.00000000E+00  0.00000000E+00
  0.00000000E+00  0.00000000E+00  0.00000000E+00
  0.00000000E+00  0.00000000E+00  0.00000000E+00
  0.00000000E+00  0.00000000E+00  0.00000000E+00
  0.00000000E+00  0.00000000E+00  0.00000000E+00
  0.00000000E+00  0.00000000E+00  0.00000000E+00
  0.00000000E+00  0.00000000E+00  0.00000000E+00
  0.00000000E+00  0.00000000E+00  0.00000000E+00
  0.00000000E+00  0.00000000E+00  0.00000000E+00
  0.00000000E+00  0.00000000E+00  0.00000000E+00
  0.00000000E+00  0.00000000E+00  0.00000000E+00
  0.00000000E+00  0.00000000E+00  0.00000000E+00
  0.00000000E+00  0.00000000E+00  0.00000000E+00
  0.00000000E+00  0.00000000E+00  0.00000000E+00
  0.00000000E+00  0.00000000E+00  0.00000000E+00
  0.00000000E+00  0.00000000E+00  0.00000000E+00
  0.00000000E+00  0.00000000E+00  0.00000000E+00
  0.00000000E+00  0.00000000E+00  0.00000000E+00
  0.00000000E+00  0.00000000E+00  0.00000000E+00
  0.00000000E+00  0.00000000E+00  0.00000000E+00
  0.00000000E+00  0.00000000E+00  0.00000000E+00
  0.00000000E+00  0.00000000E+00  0.00000000E+00
  0.00000000E+00  0.00000000E+00  0.00000000E+00
  0.00000000E+00  0.00000000E+00  0.00000000E+00
  0.00000000E+00  0.00000000E+00  0.00000000E+00
  0.00000000E+00  0.00000000E+00  0.00000000E+00
  0.00000000E+00  0.00000000E+00  0.00000000E+00
  0.00000000E+00  0.00000000E+00  0.00000000E+00
  0.00000000E+00  0.00000000E+00  0.00000000E+00
  0.00000000E+00  0.00000000E+00  0.00000000E+00
  0.00000000E+00  0.00000000E+00  0.00000000E+00
  0.00000000E+00  0.00000000E+00  0.00000000E+00
  0.00000000E+00  0.00000000E+00  0.00000000E+00
  0.00000000E+00  0.00000000E+00  0.00000000E+00
  0.00000000E+00  0.00000000E+00  0.00000000E+00
  0.00000000E+00  0.00000000E+00  0.00000000E+00
  0.00000000E+00  0.00000000E+00  0.00000000E+00
  0.00000000E+00  0.00000000E+00  0.00000000E+00
  0.00000000E+00  0.00000000E+00  0.00000000E+00
  0.00000000E+00  0.00000000E+00  0.00000000E+00
  0.00000000E+00  0.00000000E+00  0.00000000E+00
  0.00000000E+00  0.00000000E+00  0.00000000E+00
  0.00000000E+00  0.00000000E+00  0.00000000E+00
  0.00000000E+00  0.00000000E+00  0.00000000E+00
  0.00000000E+00  0.00000000E+00  0.00000000E+00
