O  C                                    
   1.00000000000000     
    13.6750001907000005    0.0000000000000000    0.0000000000000000
    -6.8375000954000003   11.8428975618999992    0.0000000000000000
     0.0000000000000000    0.0000000000000000   14.7670001983999999
   O    Si   Al   Ag   S    C 
    73    33     3     3     1     1
Direct
  0.8993496457237669  0.0975428820805320  0.1180262169051218
  0.1052428355317474  0.8882380816169757  0.8789983782644200
  0.8941427330938723  0.7937145340953862  0.1293988519716791
  0.0966536525714048  0.1972869595139457  0.8651755487446025
  0.1970794955922841  0.1041528360650119  0.1145106239915847
  0.8050329601756445  0.9036002078410377  0.8803695732422412
  0.5556169670329965  0.4272688622569447  0.4559340405583825
  0.7641353911541557  0.2337524913433882  0.2172073110440707
  0.5672665998245066  0.1419871495106477  0.4703176089041037
  0.7677851414126735  0.5396646357799000  0.2056174493945733
  0.8640846767048487  0.4256486401272426  0.4608254608353306
  0.4655827965826589  0.2357774742610204  0.1823700279922136
  0.2335009292951540  0.7752518158151958  0.7749957527127549
  0.4252095868981556  0.5696486737479844  0.5235339387260609
  0.2318790794504295  0.4474078022352899  0.7710111070855703
  0.4291447755518973  0.8515136469481703  0.5293644346783850
  0.5301022302401321  0.7554940449315950  0.8034246836739030
  0.1250606622609922  0.5604726839362115  0.5331984239850840
  0.9780375125735148  0.3159983366776800  0.1602589899620739
  0.0246524903241294  0.6686836404052627  0.8425606446858964
  0.6780690789097790  0.6727560919916158  0.1719469006566001
  0.3145133303741474  0.3155821258721758  0.8173753683665410
  0.3189105770090848  0.0150640346129904  0.1773781753850088
  0.6657011051245476  0.9786542560368900  0.8256530441371126
  0.3247461933317197  0.9857657219166995  0.8373506113177527
  0.6780324974836418  0.0041251376638129  0.1609078729563578
  0.6710033715700163  0.6726302747450816  0.8127002205636913
  0.3331517765507073  0.3234617807749345  0.1569101734249614
  0.0181434925550690  0.3370208391092078  0.8316929691167658
  0.9887507707400403  0.6703232499139631  0.1721995445378610
  0.6474422377129443  0.6414658124178203  0.5031199598667868
  0.3432128218042365  0.9942667709480233  0.4748451590502256
  0.9956490297298188  0.3387033695463373  0.4971327147522757
  0.3374673760065008  0.3506150643643764  0.4798363446438998
  0.9862549424373341  0.6424729524778741  0.5050723122986369
  0.6501625777190512  0.0076966530367102  0.5142944078482685
  0.1185521931006406  0.2432262615449758  0.1286086459441549
  0.8861487469376357  0.7449420663765878  0.8528254281672574
  0.7621891453668823  0.8781642371170122  0.1107533796290809
  0.2288092792670611  0.1078664734640213  0.8704619155292335
  0.1127092709068833  0.8831641715815763  0.1284410978962995
  0.8772370236964449  0.1223067152521793  0.8587171339313500
  0.7748035679712189  0.5566516681720799  0.4666049624524788
  0.5360970664621050  0.0859356398576026  0.1741838988145687
  0.4168098446875632  0.2106967110691329  0.4668093268997922
  0.9031426241132650  0.4534358179378657  0.1956851967252931
  0.7845275561409153  0.2071259576853208  0.4531046024849701
  0.5478972607328387  0.4555573366050467  0.1936683681884475
  0.4501091505011487  0.8964574707119510  0.8071743098073085
  0.2100635973053642  0.4277894501211108  0.5406193143612867
  0.1242692620270063  0.5554710096440658  0.8006416736990261
  0.5794781325195117  0.7878940405585340  0.5194749072050442
  0.4504088195084108  0.5343994167008432  0.7995458616393378
  0.2023485909397138  0.7768332290935476  0.5443913399692804
  0.9987881911694245  0.2583220650200246  0.9943328776979143
  0.9910752837104084  0.7300985698126041  0.0025789379465806
  0.7363013385498505  0.7135465015301463  0.9989200747889981
  0.2572544583408458  0.2665365080182198  0.9905870535064309
  0.2681739718585732  0.9992622049831681  0.0032015731164208
  0.6611143708420570  0.5893195542404328  0.3329684983775891
  0.6329653278389813  0.0501109249289016  0.3407292295034594
  0.4413191536217127  0.1082821973049093  0.3243302691917052
  0.9213504958493175  0.5865375405471340  0.3349090626653819
  0.9386523250288548  0.3448799181503048  0.3294191010213225
  0.4070769459143406  0.3232868190030871  0.3213955546369718
  0.3597862167060839  0.9502031357316412  0.6663081531649055
  0.3546370659513087  0.4089203420944472  0.6530801861786841
  0.0581871129329485  0.4063457997547673  0.6647733691003097
  0.5750824471210194  0.8970643813410604  0.6663421142125685
  0.5680850042231143  0.6592806034936913  0.6603165831058107
  0.0548193603195415  0.6404689105866126  0.6706091886316727
  0.7332102272331085  0.0109329953447102  0.9928169251630266
  0.7537567750468668  0.2817672423901953  0.7610373592410440
  0.9971208642775551  0.2280601715846373  0.1009640218237209
  0.0022769574792889  0.7601862545820239  0.8955967212219491
  0.7668367360864465  0.7633008291944705  0.0993498619307758
  0.2236422555416979  0.2216997691731493  0.8869417625278970
  0.2238358403412235  0.0013763600290204  0.1057053567939334
  0.7724993783924958  0.0001089967522248  0.8883493781796972
  0.2309032743609265  0.9945093870151993  0.8975805313168053
  0.7700423564551642  0.9980024156410181  0.0980911539168545
  0.2265318930441182  0.2336092700967995  0.0971852512213189
  0.9978054933682614  0.2270364682057249  0.8885913081301808
  0.9955342488282852  0.7691671678118226  0.1073877390864482
  0.6596750882708307  0.5534238649095897  0.4371214417436136
  0.4407379546249999  0.1100289515657735  0.4345643521137319
  0.8941110627080562  0.5613867507966077  0.2271673356254738
  0.8934217112732412  0.3274175193807025  0.4327650594101868
  0.4389692778571614  0.3339581734480390  0.2143609053457425
  0.8916523818901041  0.3332675170458899  0.2252706232178809
  0.4294001826421336  0.3265418778075642  0.4293103287865918
  0.4412082926721723  0.1112600530266050  0.2155081726332995
  0.8871928581182544  0.5520855162320544  0.4396932039261472
  0.6648967583308405  0.5642539581813679  0.2255207085491691
  0.6570619443989116  0.1007358015968549  0.4410815935942907
  0.3418165743600170  0.9032662770678428  0.7673178463225057
  0.3320629058847402  0.4370057377218757  0.5508917852547128
  0.1084832080531868  0.4360408806932554  0.7674390518505874
  0.5580637986009265  0.8885850884756792  0.5573382869552219
  0.5557004370134209  0.6566379496866688  0.7700995979215932
  0.0932074521454993  0.6593655668654819  0.5641900809839271
  0.5565702854765817  0.6657203202434800  0.5524779424851189
  0.1116953687655808  0.6626910079133026  0.7714502381667643
  0.0950650733843830  0.4310844364462270  0.5595466839562064
  0.5549252300657983  0.8814003380159221  0.7743064863614109
  0.3375960172913537  0.4262647903304924  0.7605744504125624
  0.7736156695726848  0.7648314350895262  0.8902202067929892
  0.6566961733354049  0.0953687251700970  0.2297353601229943
  0.3320612146708513  0.8994842544771231  0.5558816000010793
  0.5620994980005420  0.0224973070925500  0.0355956810862423
  0.3193712594968261  0.6715041190206392  0.4790123283099064
  0.7831863900001395  0.5901924654502153  0.7614784933720244
  0.7031667988050216  0.4240133199668534  0.6666461259153209
  0.7337718846182995  0.3445034478082007  0.7230042667573073
 
  0.00000000E+00  0.00000000E+00  0.00000000E+00
  0.00000000E+00  0.00000000E+00  0.00000000E+00
  0.00000000E+00  0.00000000E+00  0.00000000E+00
  0.00000000E+00  0.00000000E+00  0.00000000E+00
  0.00000000E+00  0.00000000E+00  0.00000000E+00
  0.00000000E+00  0.00000000E+00  0.00000000E+00
  0.00000000E+00  0.00000000E+00  0.00000000E+00
  0.00000000E+00  0.00000000E+00  0.00000000E+00
  0.00000000E+00  0.00000000E+00  0.00000000E+00
  0.00000000E+00  0.00000000E+00  0.00000000E+00
  0.00000000E+00  0.00000000E+00  0.00000000E+00
  0.00000000E+00  0.00000000E+00  0.00000000E+00
  0.00000000E+00  0.00000000E+00  0.00000000E+00
  0.00000000E+00  0.00000000E+00  0.00000000E+00
  0.00000000E+00  0.00000000E+00  0.00000000E+00
  0.00000000E+00  0.00000000E+00  0.00000000E+00
  0.00000000E+00  0.00000000E+00  0.00000000E+00
  0.00000000E+00  0.00000000E+00  0.00000000E+00
  0.00000000E+00  0.00000000E+00  0.00000000E+00
  0.00000000E+00  0.00000000E+00  0.00000000E+00
  0.00000000E+00  0.00000000E+00  0.00000000E+00
  0.00000000E+00  0.00000000E+00  0.00000000E+00
  0.00000000E+00  0.00000000E+00  0.00000000E+00
  0.00000000E+00  0.00000000E+00  0.00000000E+00
  0.00000000E+00  0.00000000E+00  0.00000000E+00
  0.00000000E+00  0.00000000E+00  0.00000000E+00
  0.00000000E+00  0.00000000E+00  0.00000000E+00
  0.00000000E+00  0.00000000E+00  0.00000000E+00
  0.00000000E+00  0.00000000E+00  0.00000000E+00
  0.00000000E+00  0.00000000E+00  0.00000000E+00
  0.00000000E+00  0.00000000E+00  0.00000000E+00
  0.00000000E+00  0.00000000E+00  0.00000000E+00
  0.00000000E+00  0.00000000E+00  0.00000000E+00
  0.00000000E+00  0.00000000E+00  0.00000000E+00
  0.00000000E+00  0.00000000E+00  0.00000000E+00
  0.00000000E+00  0.00000000E+00  0.00000000E+00
  0.00000000E+00  0.00000000E+00  0.00000000E+00
  0.00000000E+00  0.00000000E+00  0.00000000E+00
  0.00000000E+00  0.00000000E+00  0.00000000E+00
  0.00000000E+00  0.00000000E+00  0.00000000E+00
  0.00000000E+00  0.00000000E+00  0.00000000E+00
  0.00000000E+00  0.00000000E+00  0.00000000E+00
  0.00000000E+00  0.00000000E+00  0.00000000E+00
  0.00000000E+00  0.00000000E+00  0.00000000E+00
  0.00000000E+00  0.00000000E+00  0.00000000E+00
  0.00000000E+00  0.00000000E+00  0.00000000E+00
  0.00000000E+00  0.00000000E+00  0.00000000E+00
  0.00000000E+00  0.00000000E+00  0.00000000E+00
  0.00000000E+00  0.00000000E+00  0.00000000E+00
  0.00000000E+00  0.00000000E+00  0.00000000E+00
  0.00000000E+00  0.00000000E+00  0.00000000E+00
  0.00000000E+00  0.00000000E+00  0.00000000E+00
  0.00000000E+00  0.00000000E+00  0.00000000E+00
  0.00000000E+00  0.00000000E+00  0.00000000E+00
  0.00000000E+00  0.00000000E+00  0.00000000E+00
  0.00000000E+00  0.00000000E+00  0.00000000E+00
  0.00000000E+00  0.00000000E+00  0.00000000E+00
  0.00000000E+00  0.00000000E+00  0.00000000E+00
  0.00000000E+00  0.00000000E+00  0.00000000E+00
  0.00000000E+00  0.00000000E+00  0.00000000E+00
  0.00000000E+00  0.00000000E+00  0.00000000E+00
  0.00000000E+00  0.00000000E+00  0.00000000E+00
  0.00000000E+00  0.00000000E+00  0.00000000E+00
  0.00000000E+00  0.00000000E+00  0.00000000E+00
  0.00000000E+00  0.00000000E+00  0.00000000E+00
  0.00000000E+00  0.00000000E+00  0.00000000E+00
  0.00000000E+00  0.00000000E+00  0.00000000E+00
  0.00000000E+00  0.00000000E+00  0.00000000E+00
  0.00000000E+00  0.00000000E+00  0.00000000E+00
  0.00000000E+00  0.00000000E+00  0.00000000E+00
  0.00000000E+00  0.00000000E+00  0.00000000E+00
  0.00000000E+00  0.00000000E+00  0.00000000E+00
  0.00000000E+00  0.00000000E+00  0.00000000E+00
  0.00000000E+00  0.00000000E+00  0.00000000E+00
  0.00000000E+00  0.00000000E+00  0.00000000E+00
  0.00000000E+00  0.00000000E+00  0.00000000E+00
  0.00000000E+00  0.00000000E+00  0.00000000E+00
  0.00000000E+00  0.00000000E+00  0.00000000E+00
  0.00000000E+00  0.00000000E+00  0.00000000E+00
  0.00000000E+00  0.00000000E+00  0.00000000E+00
  0.00000000E+00  0.00000000E+00  0.00000000E+00
  0.00000000E+00  0.00000000E+00  0.00000000E+00
  0.00000000E+00  0.00000000E+00  0.00000000E+00
  0.00000000E+00  0.00000000E+00  0.00000000E+00
  0.00000000E+00  0.00000000E+00  0.00000000E+00
  0.00000000E+00  0.00000000E+00  0.00000000E+00
  0.00000000E+00  0.00000000E+00  0.00000000E+00
  0.00000000E+00  0.00000000E+00  0.00000000E+00
  0.00000000E+00  0.00000000E+00  0.00000000E+00
  0.00000000E+00  0.00000000E+00  0.00000000E+00
  0.00000000E+00  0.00000000E+00  0.00000000E+00
  0.00000000E+00  0.00000000E+00  0.00000000E+00
  0.00000000E+00  0.00000000E+00  0.00000000E+00
  0.00000000E+00  0.00000000E+00  0.00000000E+00
  0.00000000E+00  0.00000000E+00  0.00000000E+00
  0.00000000E+00  0.00000000E+00  0.00000000E+00
  0.00000000E+00  0.00000000E+00  0.00000000E+00
  0.00000000E+00  0.00000000E+00  0.00000000E+00
  0.00000000E+00  0.00000000E+00  0.00000000E+00
  0.00000000E+00  0.00000000E+00  0.00000000E+00
  0.00000000E+00  0.00000000E+00  0.00000000E+00
  0.00000000E+00  0.00000000E+00  0.00000000E+00
  0.00000000E+00  0.00000000E+00  0.00000000E+00
  0.00000000E+00  0.00000000E+00  0.00000000E+00
  0.00000000E+00  0.00000000E+00  0.00000000E+00
  0.00000000E+00  0.00000000E+00  0.00000000E+00
  0.00000000E+00  0.00000000E+00  0.00000000E+00
  0.00000000E+00  0.00000000E+00  0.00000000E+00
  0.00000000E+00  0.00000000E+00  0.00000000E+00
  0.00000000E+00  0.00000000E+00  0.00000000E+00
  0.00000000E+00  0.00000000E+00  0.00000000E+00
  0.00000000E+00  0.00000000E+00  0.00000000E+00
  0.00000000E+00  0.00000000E+00  0.00000000E+00
  0.00000000E+00  0.00000000E+00  0.00000000E+00
