O2                                      
   1.00000000000000     
    13.6750001907000005    0.0000000000000000    0.0000000000000000
    -6.8375000954000003   11.8428975618999992    0.0000000000000000
     0.0000000000000000    0.0000000000000000   14.7670001983999999
   O    S    C 
     1     1     1
Direct
  0.8169187259269606  0.5149351912495703  0.6819632356733720
  0.7639229111706669  0.5306106596247986  0.5059519594086908
  0.7941552649023720  0.5216729291256357  0.6063391679179375
 
             NaN             NaN             NaN
             NaN             NaN             NaN
             NaN             NaN             NaN
