O2                                      
   1.00000000000000     
    13.6750001907000005    0.0000000000000000    0.0000000000000000
    -6.8375000954000003   11.8428975618999992    0.0000000000000000
     0.0000000000000000    0.0000000000000000   14.7670001983999999
   O    S 
     2     1
Direct
  0.8373914857935674  0.4980301785481416  0.6824007661912574
  0.7912489031477890  0.6375955311246031  0.6149839926720304
  0.7963564650586434  0.5347640613272588  0.6068218151367191
 
             NaN             NaN             NaN
             NaN             NaN             NaN
             NaN             NaN             NaN
