O  C                                    
   1.00000000000000     
    13.6750001907000005    0.0000000000000000    0.0000000000000000
    -6.8375000954000003   11.8428975618999992    0.0000000000000000
     0.0000000000000000    0.0000000000000000   14.7670001983999999
   O    Si   Al   Ag   C 
    74    33     3     3     1
Direct
  0.8965764192107954  0.0968147623607649  0.1187453887684455
  0.1078444702095211  0.8883277861845897  0.8832999651808890
  0.8922582781907451  0.7943676787771494  0.1275987013316353
  0.0928687024053616  0.1949624858537788  0.8662105865450371
  0.1939947310016663  0.1034933137946012  0.1160738809749375
  0.7981275088616968  0.9029558240489095  0.8815706096554194
  0.5521710702116849  0.4265569382147945  0.4558362932864952
  0.7617125025809912  0.2338282867621899  0.2187819980536219
  0.5645556215420200  0.1398553366551738  0.4703065233063128
  0.7644316081596543  0.5379171770494651  0.2035479905533748
  0.8616020956982737  0.4243023656724816  0.4632002191582458
  0.4631000888843460  0.2360922669200249  0.1834177898596252
  0.2284423461988467  0.7750841863791251  0.7774050926249529
  0.4230045164605798  0.5685996677957164  0.5236382936990367
  0.2312020320495947  0.4518727517147738  0.7737909832964931
  0.4274693021672107  0.8512355539011267  0.5304890675070979
  0.5310655740193013  0.7560628265884617  0.8042529671516334
  0.1210178368973445  0.5586646199642757  0.5335088964330268
  0.9752434251866831  0.3151880040983670  0.1612066232356781
  0.0176968953363357  0.6692551824305468  0.8401793144145913
  0.6768518505367496  0.6732880071127667  0.1735627006609448
  0.3105098089528866  0.3163312863868768  0.8185479598736976
  0.3161420797950854  0.0149077889484914  0.1791896396680670
  0.6611503821154585  0.9803066526449697  0.8269175483371285
  0.3256207723063937  0.9870462840451353  0.8383013537450026
  0.6753838099583334  0.0036750225762106  0.1620846692590021
  0.6716215010800255  0.6727601597660353  0.8112786315653011
  0.3304418868386776  0.3232661637011134  0.1573897588497601
  0.0165463741045002  0.3366416779070391  0.8324821881156410
  0.9859560053488181  0.6712964029838133  0.1745546438341847
  0.6454245598037858  0.6409437690052187  0.5033920402507519
  0.3404770369422252  0.9932038469480489  0.4749955562455170
  0.9926621218354867  0.3366897548064003  0.4981943499334136
  0.3344907358749083  0.3487118511768514  0.4820192893687860
  0.9841812248742130  0.6425952024223278  0.5039745056910618
  0.6487070075982615  0.0067117646635921  0.5144740717683902
  0.1157359690766953  0.2427170019671081  0.1295523353692829
  0.8889763090097844  0.7563922238332168  0.8557875788582905
  0.7590294590635338  0.8777253865261443  0.1101980537520930
  0.2277627206190331  0.1082016961171135  0.8702555177493281
  0.1113402207663228  0.8825915423876580  0.1260188095670358
  0.8736694261965283  0.1225105006911846  0.8593081736266655
  0.7709581378448505  0.5532437299341098  0.4703316873397796
  0.5339381029243953  0.0865665549479999  0.1745811766796734
  0.4145405292700133  0.2097213691369788  0.4674016547219182
  0.9015337668464838  0.4535712768492104  0.1955640596935098
  0.7819418012400732  0.2059880308914970  0.4526792737663641
  0.5444003264170831  0.4560112614343552  0.1960747128075369
  0.4453182017799904  0.8919541260823038  0.8061383826515893
  0.2077457119924944  0.4278415977116410  0.5398296365394089
  0.1176921161955775  0.5547566613583967  0.8009374193101237
  0.5770697777525058  0.7869160928544403  0.5197673460804850
  0.4497279791603148  0.5346077073091990  0.8005423344325280
  0.2008028586973793  0.7750752907170124  0.5424897313396571
  0.9960111029729433  0.2575963605316360  0.9951117967027301
  0.9881831701189441  0.7264396558980764  0.0032774433293881
  0.7309750379658695  0.7117021122507907  0.9995272521970904
  0.2538398682738645  0.2650950165923689  0.9914115090068876
  0.2714054788860665  0.0044844383944778  0.0045821102037280
  0.6628130058403272  0.5891195289996674  0.3340201934655695
  0.6302340464080700  0.0483264276831363  0.3409205590027895
  0.4395201315448531  0.1082644328147566  0.3249489035570647
  0.9141388768056586  0.5829356752476684  0.3355736419594919
  0.9367171462360275  0.3460238311636132  0.3303013654245106
  0.4023865604505232  0.3217642224609705  0.3224305346633543
  0.3545231954674932  0.9477260447559601  0.6666957436558576
  0.3505847056619373  0.4096354060121143  0.6546366969442587
  0.0573542496389265  0.4054221215034559  0.6655767188817592
  0.5744096754896901  0.8966526811813864  0.6668407186100609
  0.5658924473068367  0.6582261734475310  0.6604308886337691
  0.0524466766522877  0.6423033953632995  0.6697116722196057
  0.7299482965878497  0.0126180129341904  0.9939995420818590
  0.6112103698094060  0.2862988326547082  0.6352430210932738
  0.7734338202741995  0.4583707792974039  0.6720586991247472
  0.9942972819404829  0.2273435333591607  0.1017725493903470
  0.0010721081560092  0.7621105571837887  0.8973257923777709
  0.7639334524916848  0.7628610861483764  0.0995029849171090
  0.2205613299599420  0.2208999070770972  0.8876121206819789
  0.2225421979383597  0.0019905880186570  0.1062870217993535
  0.7680001725854382  0.0009479082469070  0.8893456196323370
  0.2325277112971378  0.9965475605321359  0.8990470251300238
  0.7670290593588618  0.9978072126653004  0.0988033771494798
  0.2235795109737566  0.2328963190119495  0.0981318145306957
  0.9949652452544697  0.2262470086130506  0.8893625321467340
  0.9932340013121959  0.7685040682555950  0.1073194391826959
  0.6575544590904485  0.5521193490870289  0.4382859004487329
  0.4383575705217524  0.1090319360842287  0.4351044687069674
  0.8905598503954408  0.5603875007779067  0.2272393529978629
  0.8910265073437316  0.3264334969662670  0.4335964736598896
  0.4357335208201647  0.3337383281156718  0.2155902213268135
  0.8893611860187818  0.3333245648123366  0.2260845057380791
  0.4259791283068353  0.3251242787598088  0.4301942975781401
  0.4389114058514778  0.1114925080277160  0.2162657452595127
  0.8834691277254905  0.5501452391958637  0.4409184432654811
  0.6630095463374417  0.5638902124606702  0.2261894098536175
  0.6545818724217014  0.0991808502066007  0.4411541047157996
  0.3382763467265875  0.9019333606545530  0.7679172032776833
  0.3292438190405136  0.4363967316550372  0.5517191182738088
  0.1060747501202002  0.4367377897851483  0.7685795917988401
  0.5564067026025086  0.8879985504311492  0.5579048460074816
  0.5551360717630374  0.6564411306915758  0.7702791716576698
  0.0907222448637768  0.6587431107822113  0.5633577824293994
  0.5541741363969521  0.6647623763346147  0.5525873357908466
  0.1066659379098098  0.6627761956214400  0.7714472742531342
  0.0923428767175096  0.4298663679242551  0.5600518952944853
  0.5526508919563042  0.8807620100126741  0.7746452826280930
  0.3350423775275289  0.4277647866613208  0.7622578991257356
  0.7704696960847031  0.7654958713152666  0.8916699874492977
  0.6541495522557454  0.0952084366632917  0.2304043625364613
  0.3296123410822034  0.8984898594493131  0.5559413919067708
  0.5600174987986577  0.0243194627496734  0.0359611897303083
  0.3169383919847775  0.6709497943912268  0.4797703620413287
  0.7990679293710841  0.6198870988061387  0.7452256218315370
  0.6915544552131792  0.3718026882669605  0.6531065452314095
 
             NaN             NaN             NaN
             NaN             NaN             NaN
             NaN             NaN             NaN
             NaN             NaN             NaN
             NaN             NaN             NaN
             NaN             NaN             NaN
             NaN             NaN             NaN
             NaN             NaN             NaN
             NaN             NaN             NaN
             NaN             NaN             NaN
             NaN             NaN             NaN
             NaN             NaN             NaN
             NaN             NaN             NaN
             NaN             NaN             NaN
             NaN             NaN             NaN
             NaN             NaN             NaN
             NaN             NaN             NaN
             NaN             NaN             NaN
             NaN             NaN             NaN
             NaN             NaN             NaN
             NaN             NaN             NaN
             NaN             NaN             NaN
             NaN             NaN             NaN
             NaN             NaN             NaN
             NaN             NaN             NaN
             NaN             NaN             NaN
             NaN             NaN             NaN
             NaN             NaN             NaN
             NaN             NaN             NaN
             NaN             NaN             NaN
             NaN             NaN             NaN
             NaN             NaN             NaN
             NaN             NaN             NaN
             NaN             NaN             NaN
             NaN             NaN             NaN
             NaN             NaN             NaN
             NaN             NaN             NaN
             NaN             NaN             NaN
             NaN             NaN             NaN
             NaN             NaN             NaN
             NaN             NaN             NaN
             NaN             NaN             NaN
             NaN             NaN             NaN
             NaN             NaN             NaN
             NaN             NaN             NaN
             NaN             NaN             NaN
             NaN             NaN             NaN
             NaN             NaN             NaN
             NaN             NaN             NaN
             NaN             NaN             NaN
             NaN             NaN             NaN
             NaN             NaN             NaN
             NaN             NaN             NaN
             NaN             NaN             NaN
             NaN             NaN             NaN
             NaN             NaN             NaN
             NaN             NaN             NaN
             NaN             NaN             NaN
             NaN             NaN             NaN
             NaN             NaN             NaN
             NaN             NaN             NaN
             NaN             NaN             NaN
             NaN             NaN             NaN
             NaN             NaN             NaN
             NaN             NaN             NaN
             NaN             NaN             NaN
             NaN             NaN             NaN
             NaN             NaN             NaN
             NaN             NaN             NaN
             NaN             NaN             NaN
             NaN             NaN             NaN
             NaN             NaN             NaN
             NaN             NaN             NaN
             NaN             NaN             NaN
             NaN             NaN             NaN
             NaN             NaN             NaN
             NaN             NaN             NaN
             NaN             NaN             NaN
             NaN             NaN             NaN
             NaN             NaN             NaN
             NaN             NaN             NaN
             NaN             NaN             NaN
             NaN             NaN             NaN
             NaN             NaN             NaN
             NaN             NaN             NaN
             NaN             NaN             NaN
             NaN             NaN             NaN
             NaN             NaN             NaN
             NaN             NaN             NaN
             NaN             NaN             NaN
             NaN             NaN             NaN
             NaN             NaN             NaN
             NaN             NaN             NaN
             NaN             NaN             NaN
             NaN             NaN             NaN
             NaN             NaN             NaN
             NaN             NaN             NaN
             NaN             NaN             NaN
             NaN             NaN             NaN
             NaN             NaN             NaN
             NaN             NaN             NaN
             NaN             NaN             NaN
             NaN             NaN             NaN
             NaN             NaN             NaN
             NaN             NaN             NaN
             NaN             NaN             NaN
             NaN             NaN             NaN
             NaN             NaN             NaN
             NaN             NaN             NaN
             NaN             NaN             NaN
             NaN             NaN             NaN
             NaN             NaN             NaN
             NaN             NaN             NaN
             NaN             NaN             NaN
