O  C                                    
   1.00000000000000     
    13.6750001907000005    0.0000000000000000    0.0000000000000000
    -6.8375000954000003   11.8428975618999992    0.0000000000000000
     0.0000000000000000    0.0000000000000000   14.7670001983999999
   O    Si   Al   Ag   C 
    74    33     3     3     1
Direct
  0.8965764192107956  0.0968147623607631  0.1187453887684424
  0.1078444702095211  0.8883277861845883  0.8832999651808905
  0.8922582781907458  0.7943676787771516  0.1275987013316378
  0.0928687024053621  0.1949624858537779  0.8662105865450385
  0.1939947310016649  0.1034933137946044  0.1160738809749346
  0.7981275088616947  0.9029558240489065  0.8815706096554212
  0.5521710702116844  0.4265569382147958  0.4558362932864929
  0.7617125025809930  0.2338282867621913  0.2187819980536239
  0.5645556215420170  0.1398553366551732  0.4703065233063128
  0.7644316081596521  0.5379171770494647  0.2035479905533769
  0.8616020956982764  0.4243023656724798  0.4632002191582471
  0.4631000888843463  0.2360922669200250  0.1834177898596260
  0.2284423461988447  0.7750841863791268  0.7774050926249533
  0.4230045164605820  0.5685996677957182  0.5236382936990374
  0.2312020320495916  0.4518727517147750  0.7737909832964956
  0.4274693021672087  0.8512355539011285  0.5304890675071010
  0.5310655740193020  0.7560628265884591  0.8042529671516323
  0.1210178368973423  0.5586646199642757  0.5335088964330288
  0.9752434251866822  0.3151880040983693  0.1612066232356774
  0.0176968953363392  0.6692551824305455  0.8401793144145931
  0.6768518505367526  0.6732880071127680  0.1735627006609443
  0.3105098089528848  0.3163312863868755  0.8185479598737000
  0.3161420797950853  0.0149077889484916  0.1791896396680699
  0.6611503821154593  0.9803066526449692  0.8269175483371302
  0.3256207723063924  0.9870462840451365  0.8383013537450048
  0.6753838099583324  0.0036750225762084  0.1620846692590030
  0.6716215010800288  0.6727601597660362  0.8112786315652991
  0.3304418868386751  0.3232661637011135  0.1573897588497604
  0.0165463741044979  0.3366416779070399  0.8324821881156387
  0.9859560053488174  0.6712964029838142  0.1745546438341870
  0.6454245598037884  0.6409437690052218  0.5033920402507536
  0.3404770369422246  0.9932038469480474  0.4749955562455146
  0.9926621218354852  0.3366897548064023  0.4981943499334154
  0.3344907358749111  0.3487118511768535  0.4820192893687869
  0.9841812248742141  0.6425952024223299  0.5039745056910605
  0.6487070075982622  0.0067117646635954  0.5144740717683915
  0.1157359690766956  0.2427170019671110  0.1295523353692826
  0.8889763090097866  0.7563922238332147  0.8557875788582937
  0.7590294590635339  0.8777253865261424  0.1101980537520923
  0.2277627206190328  0.1082016961171155  0.8702555177493286
  0.1113402207663216  0.8825915423876610  0.1260188095670349
  0.8736694261965310  0.1225105006911869  0.8593081736266678
  0.7709581378448527  0.5532437299341104  0.4703316873397808
  0.5339381029243919  0.0865665549479992  0.1745811766796737
  0.4145405292700126  0.2097213691369774  0.4674016547219161
  0.9015337668464860  0.4535712768492073  0.1955640596935093
  0.7819418012400708  0.2059880308914958  0.4526792737663662
  0.5444003264170838  0.4560112614343572  0.1960747128075357
  0.4453182017799908  0.8919541260823063  0.8061383826515923
  0.2077457119924976  0.4278415977116440  0.5398296365394117
  0.1176921161955791  0.5547566613583940  0.8009374193101253
  0.5770697777525092  0.7869160928544409  0.5197673460804821
  0.4497279791603183  0.5346077073091963  0.8005423344325296
  0.2008028586973772  0.7750752907170102  0.5424897313396544
  0.9960111029729453  0.2575963605316395  0.9951117967027290
  0.9881831701189414  0.7264396558980728  0.0032774433293874
  0.7309750379658668  0.7117021122507884 -0.0004727478029112
  0.2538398682738680  0.2650950165923712  0.9914115090068902
  0.2714054788860673  1.0044844383944806  0.0045821102037301
  0.6628130058403280  0.5891195289996696  0.3340201934655669
  0.6302340464080721  0.0483264276831354  0.3409205590027907
  0.4395201315448506  0.1082644328147578  0.3249489035570668
  0.9141388768056604  0.5829356752476693  0.3355736419594930
  0.9367171462360291  0.3460238311636135  0.3303013654245130
  0.4023865604505266  0.3217642224609676  0.3224305346633529
  0.3545231954674950  0.9477260447559567  0.6666957436558583
  0.3505847056619369  0.4096354060121118  0.6546366969442609
  0.0573542496389237  0.4054221215034551  0.6655767188817626
  0.5744096754896882  0.8966526811813832  0.6668407186100583
  0.5658924473068366  0.6582261734475345  0.6604308886337659
  0.0524466766522873  0.6423033953632969  0.6697116722196054
  0.7299482965878499  0.0126180129341912  0.9939995420818580
  0.6112103698094051  0.2862988326547090  0.6352430210932768
  0.7734338202741987  0.4583707792974062  0.6720586991247450
  0.9942972819404837  0.2273435333591630  0.1017725493903462
  1.0010721081560072  0.7621105571837913  0.8973257923777714
  0.7639334524916864  0.7628610861483774  0.0995029849171073
  0.2205613299599409  0.2208999070770968  0.8876121206819817
  0.2225421979383592  0.0019905880186605  0.1062870217993509
  0.7680001725854347  1.0009479082469093  0.8893456196323378
  0.2325277112971372  0.9965475605321337  0.8990470251300245
  0.7670290593588628  0.9978072126652974  0.0988033771494821
  0.2235795109737592  0.2328963190119495  0.0981318145306970
  0.9949652452544731  0.2262470086130488  0.8893625321467366
  0.9932340013121980  0.7685040682555935  0.1073194391826930
  0.6575544590904450  0.5521193490870281  0.4382859004487349
  0.4383575705217555  0.1090319360842285  0.4351044687069671
  0.8905598503954433  0.5603875007779080  0.2272393529978612
  0.8910265073437321  0.3264334969662663  0.4335964736598911
  0.4357335208201661  0.3337383281156753  0.2155902213268162
  0.8893611860187796  0.3333245648123363  0.2260845057380797
  0.4259791283068369  0.3251242787598078  0.4301942975781392
  0.4389114058514786  0.1114925080277164  0.2162657452595137
  0.8834691277254938  0.5501452391958670  0.4409184432654842
  0.6630095463374420  0.5638902124606674  0.2261894098536202
  0.6545818724216989  0.0991808502066041  0.4411541047157968
  0.3382763467265867  0.9019333606545542  0.7679172032776832
  0.3292438190405152  0.4363967316550398  0.5517191182738085
  0.1060747501202009  0.4367377897851469  0.7685795917988383
  0.5564067026025116  0.8879985504311464  0.5579048460074810
  0.5551360717630353  0.6564411306915758  0.7702791716576692
  0.0907222448637743  0.6587431107822090  0.5633577824293974
  0.5541741363969493  0.6647623763346174  0.5525873357908450
  0.1066659379098099  0.6627761956214421  0.7714472742531358
  0.0923428767175070  0.4298663679242563  0.5600518952944842
  0.5526508919563061  0.8807620100126758  0.7746452826280941
  0.3350423775275322  0.4277647866613208  0.7622578991257370
  0.7704696960847003  0.7654958713152694  0.8916699874492970
  0.6541495522557471  0.0952084366632908  0.2304043625364596
  0.3296123410822032  0.8984898594493154  0.5559413919067683
  0.5600174987986566  0.0243194627496713  0.0359611897303060
  0.3169383919847798  0.6709497943912293  0.4797703620413277
  0.7990679293710838  0.6198870988061395  0.7452256218315355
  0.6915544552131770  0.3718026882669616  0.6531065452314089
 
  0.00000000E+00  0.00000000E+00  0.00000000E+00
  0.00000000E+00  0.00000000E+00  0.00000000E+00
  0.00000000E+00  0.00000000E+00  0.00000000E+00
  0.00000000E+00  0.00000000E+00  0.00000000E+00
  0.00000000E+00  0.00000000E+00  0.00000000E+00
  0.00000000E+00  0.00000000E+00  0.00000000E+00
  0.00000000E+00  0.00000000E+00  0.00000000E+00
  0.00000000E+00  0.00000000E+00  0.00000000E+00
  0.00000000E+00  0.00000000E+00  0.00000000E+00
  0.00000000E+00  0.00000000E+00  0.00000000E+00
  0.00000000E+00  0.00000000E+00  0.00000000E+00
  0.00000000E+00  0.00000000E+00  0.00000000E+00
  0.00000000E+00  0.00000000E+00  0.00000000E+00
  0.00000000E+00  0.00000000E+00  0.00000000E+00
  0.00000000E+00  0.00000000E+00  0.00000000E+00
  0.00000000E+00  0.00000000E+00  0.00000000E+00
  0.00000000E+00  0.00000000E+00  0.00000000E+00
  0.00000000E+00  0.00000000E+00  0.00000000E+00
  0.00000000E+00  0.00000000E+00  0.00000000E+00
  0.00000000E+00  0.00000000E+00  0.00000000E+00
  0.00000000E+00  0.00000000E+00  0.00000000E+00
  0.00000000E+00  0.00000000E+00  0.00000000E+00
  0.00000000E+00  0.00000000E+00  0.00000000E+00
  0.00000000E+00  0.00000000E+00  0.00000000E+00
  0.00000000E+00  0.00000000E+00  0.00000000E+00
  0.00000000E+00  0.00000000E+00  0.00000000E+00
  0.00000000E+00  0.00000000E+00  0.00000000E+00
  0.00000000E+00  0.00000000E+00  0.00000000E+00
  0.00000000E+00  0.00000000E+00  0.00000000E+00
  0.00000000E+00  0.00000000E+00  0.00000000E+00
  0.00000000E+00  0.00000000E+00  0.00000000E+00
  0.00000000E+00  0.00000000E+00  0.00000000E+00
  0.00000000E+00  0.00000000E+00  0.00000000E+00
  0.00000000E+00  0.00000000E+00  0.00000000E+00
  0.00000000E+00  0.00000000E+00  0.00000000E+00
  0.00000000E+00  0.00000000E+00  0.00000000E+00
  0.00000000E+00  0.00000000E+00  0.00000000E+00
  0.00000000E+00  0.00000000E+00  0.00000000E+00
  0.00000000E+00  0.00000000E+00  0.00000000E+00
  0.00000000E+00  0.00000000E+00  0.00000000E+00
  0.00000000E+00  0.00000000E+00  0.00000000E+00
  0.00000000E+00  0.00000000E+00  0.00000000E+00
  0.00000000E+00  0.00000000E+00  0.00000000E+00
  0.00000000E+00  0.00000000E+00  0.00000000E+00
  0.00000000E+00  0.00000000E+00  0.00000000E+00
  0.00000000E+00  0.00000000E+00  0.00000000E+00
  0.00000000E+00  0.00000000E+00  0.00000000E+00
  0.00000000E+00  0.00000000E+00  0.00000000E+00
  0.00000000E+00  0.00000000E+00  0.00000000E+00
  0.00000000E+00  0.00000000E+00  0.00000000E+00
  0.00000000E+00  0.00000000E+00  0.00000000E+00
  0.00000000E+00  0.00000000E+00  0.00000000E+00
  0.00000000E+00  0.00000000E+00  0.00000000E+00
  0.00000000E+00  0.00000000E+00  0.00000000E+00
  0.00000000E+00  0.00000000E+00  0.00000000E+00
  0.00000000E+00  0.00000000E+00  0.00000000E+00
  0.00000000E+00  0.00000000E+00  0.00000000E+00
  0.00000000E+00  0.00000000E+00  0.00000000E+00
  0.00000000E+00  0.00000000E+00  0.00000000E+00
  0.00000000E+00  0.00000000E+00  0.00000000E+00
  0.00000000E+00  0.00000000E+00  0.00000000E+00
  0.00000000E+00  0.00000000E+00  0.00000000E+00
  0.00000000E+00  0.00000000E+00  0.00000000E+00
  0.00000000E+00  0.00000000E+00  0.00000000E+00
  0.00000000E+00  0.00000000E+00  0.00000000E+00
  0.00000000E+00  0.00000000E+00  0.00000000E+00
  0.00000000E+00  0.00000000E+00  0.00000000E+00
  0.00000000E+00  0.00000000E+00  0.00000000E+00
  0.00000000E+00  0.00000000E+00  0.00000000E+00
  0.00000000E+00  0.00000000E+00  0.00000000E+00
  0.00000000E+00  0.00000000E+00  0.00000000E+00
  0.00000000E+00  0.00000000E+00  0.00000000E+00
  0.00000000E+00  0.00000000E+00  0.00000000E+00
  0.00000000E+00  0.00000000E+00  0.00000000E+00
  0.00000000E+00  0.00000000E+00  0.00000000E+00
  0.00000000E+00  0.00000000E+00  0.00000000E+00
  0.00000000E+00  0.00000000E+00  0.00000000E+00
  0.00000000E+00  0.00000000E+00  0.00000000E+00
  0.00000000E+00  0.00000000E+00  0.00000000E+00
  0.00000000E+00  0.00000000E+00  0.00000000E+00
  0.00000000E+00  0.00000000E+00  0.00000000E+00
  0.00000000E+00  0.00000000E+00  0.00000000E+00
  0.00000000E+00  0.00000000E+00  0.00000000E+00
  0.00000000E+00  0.00000000E+00  0.00000000E+00
  0.00000000E+00  0.00000000E+00  0.00000000E+00
  0.00000000E+00  0.00000000E+00  0.00000000E+00
  0.00000000E+00  0.00000000E+00  0.00000000E+00
  0.00000000E+00  0.00000000E+00  0.00000000E+00
  0.00000000E+00  0.00000000E+00  0.00000000E+00
  0.00000000E+00  0.00000000E+00  0.00000000E+00
  0.00000000E+00  0.00000000E+00  0.00000000E+00
  0.00000000E+00  0.00000000E+00  0.00000000E+00
  0.00000000E+00  0.00000000E+00  0.00000000E+00
  0.00000000E+00  0.00000000E+00  0.00000000E+00
  0.00000000E+00  0.00000000E+00  0.00000000E+00
  0.00000000E+00  0.00000000E+00  0.00000000E+00
  0.00000000E+00  0.00000000E+00  0.00000000E+00
  0.00000000E+00  0.00000000E+00  0.00000000E+00
  0.00000000E+00  0.00000000E+00  0.00000000E+00
  0.00000000E+00  0.00000000E+00  0.00000000E+00
  0.00000000E+00  0.00000000E+00  0.00000000E+00
  0.00000000E+00  0.00000000E+00  0.00000000E+00
  0.00000000E+00  0.00000000E+00  0.00000000E+00
  0.00000000E+00  0.00000000E+00  0.00000000E+00
  0.00000000E+00  0.00000000E+00  0.00000000E+00
  0.00000000E+00  0.00000000E+00  0.00000000E+00
  0.00000000E+00  0.00000000E+00  0.00000000E+00
  0.00000000E+00  0.00000000E+00  0.00000000E+00
  0.00000000E+00  0.00000000E+00  0.00000000E+00
  0.00000000E+00  0.00000000E+00  0.00000000E+00
  0.00000000E+00  0.00000000E+00  0.00000000E+00
  0.00000000E+00  0.00000000E+00  0.00000000E+00
  0.00000000E+00  0.00000000E+00  0.00000000E+00
  0.00000000E+00  0.00000000E+00  0.00000000E+00
