O  C                                    
   1.00000000000000     
    13.6750001907000005    0.0000000000000000    0.0000000000000000
    -6.8375000954000003   11.8428975618999992    0.0000000000000000
     0.0000000000000000    0.0000000000000000   14.7670001983999999
   O    Si   Al   Ag
    74    33     3     3
Direct
  0.8958458170098816  0.1002101450252328  0.1194938137980395
  0.1037313325695299  0.8888333511125294  0.8767593851779559
  0.8923259989808182  0.7895751663177361  0.1252923340712258
  0.0917402511740649  0.1948229088834745  0.8672132805620947
  0.1935793738759342  0.1021637230145992  0.1151524884496763
  0.7996539193930229  0.9057111127058171  0.8809847208438627
  0.5577752315865319  0.4243056603386581  0.4595956495963088
  0.7627191430259269  0.2276863384056588  0.2172294279309780
  0.5651545213807366  0.1409754664073086  0.4710964528134854
  0.7663622584703923  0.5433170759519517  0.2153566106865716
  0.8608467521128358  0.4253369339061054  0.4626177749338234
  0.4649509277617557  0.2353725097819818  0.1826300340829581
  0.2270963674371599  0.7743064464341298  0.7788179415813976
  0.4248671600136871  0.5703499078971411  0.5269604738796221
  0.2294164391076530  0.4506405306465313  0.7728661022763508
  0.4295757044482916  0.8508028296272480  0.5308937435468792
  0.5297743387160875  0.7562643786053428  0.8053367137015819
  0.1225727327837228  0.5584829897031759  0.5311077030961314
  0.9782749082845766  0.3187463146750742  0.1615276131249986
  0.0145396876367355  0.6679785302414076  0.8372080336538725
  0.6777596281575463  0.6751819573647312  0.1751593735141347
  0.3091992566419374  0.3157917071723303  0.8190140673696474
  0.3175707740795145  0.0149420691857206  0.1770793343539253
  0.6595217708327954  0.9802837645318377  0.8291665140184653
  0.3233168201649493  0.9866313423323734  0.8373295020651768
  0.6733883015614652 -0.0022638096225833  0.1642836798998005
  0.6657780284351831  0.6697134370288256  0.8192951996426947
  0.3304071795008014  0.3208436940825331  0.1590217204160415
  0.0151478493175189  0.3360400534689787  0.8312249136006605
  0.9854599827504402  0.6658658005084230  0.1697719234263393
  0.6465576868800372  0.6387135561777484  0.5060532724843506
  0.3418622001729328  0.9925430556720259  0.4746179678169144
  0.9930691407917660  0.3373279240737015  0.4961940623376327
  0.3396287772605804  0.3526925009831195  0.4804129697110696
  0.9855375931323646  0.6431242091057215  0.5028011695945240
  0.6499607662462313  0.0078275652955827  0.5159695824718767
  0.1157566326928034  0.2419418888657853  0.1301749853430080
  0.8826752894054010  0.7493135221963191  0.8619742362787429
  0.7669878716203181  0.8812334790821195  0.1116161795401859
  0.2268317099567495  0.1083860896493850  0.8714381905003445
  0.1108737167378665  0.8813404651644243  0.1307050961216510
  0.8722228685562013  0.1241871852441946  0.8615915500278503
  0.7773494667409420  0.5625781604717809  0.4515473742807466
  0.5342357854713837  0.0842384172664868  0.1749346713320474
  0.4131599098602635  0.2084798883667643  0.4664686355068302
  0.8913167314193368  0.4472142816942122  0.1916107652045412
  0.7822741854748100  0.2063661410027080  0.4515668898571247
  0.5472585245714947  0.4552080083403752  0.1890897837452415
  0.4441151924050541  0.8920804233326481  0.8068827521713058
  0.2085226769581746  0.4268690220639031  0.5386041404156151
  0.1157606320447856  0.5536062741845369  0.8007821829305032
  0.5810469764376742  0.7879078422044529  0.5225444448810733
  0.4467686445620518  0.5336917103464028  0.8004920564840983
  0.2027824589137250  0.7744592436239558  0.5402538520455250
  0.9979245541042652  0.2605216580008096  0.9955489602809743
  0.9973397379645454  0.7299818540263050  0.0018419983493609
  0.7270895380524420  0.7121288193220009  0.0011149222190274
  0.2538824203308489  0.2656164092175414  0.9922017273392666
  0.2639929054074590  0.9971310815957042  0.0033901794271349
  0.6424771525628105  0.5844438857987359  0.3338644502637825
  0.6284428107561366  0.0465138028867601  0.3425728602835356
  0.4397151143150196  0.1074794371934745  0.3245248138399031
  0.9313114658129523  0.5832673392080040  0.3326389116668296
  0.9351246296533741  0.3479147056949468  0.3292260507541696
  0.4119330806119512  0.3273489592304211  0.3221114264492980
  0.3534234425932092  0.9456645169536478  0.6663811981757291
  0.3492947096993211  0.4074321403079589  0.6545059832137814
  0.0575554732093888  0.4058033196909138  0.6638023953412784
  0.5750886365407378  0.8977626297180774  0.6682969366665540
  0.5693834330891675  0.6593719488107864  0.6632731142018531
  0.0550935878101797  0.6415545181304459  0.6676827176593630
  0.7288042625775686  0.0108059239945943  0.9958269515128383
  0.7619282354581857  0.4719210957167245  0.6927935584736676
  0.7986990662167531  0.5444720452269752  0.6309313339017533
  0.9955473006606362  0.2296642185975269  0.1022307024169013
  1.0008490381879862  0.7618695527403638  0.8957529267922021
  0.7649617400678869  0.7630743749813685  0.1007229289165000
  0.2195503181035132  0.2209634715827395  0.8885602360356636
  0.2211511170165818  0.9998846842465438  0.1063680935511589
  0.7672679529260610  1.0021520421308043  0.8907079970419500
  0.2290116703298043  0.9947828590560416  0.8974371270275042
  0.7678156038590054  0.9978968884134445  0.1005387451564643
  0.2236182841804087  0.2320292291720815  0.0988468949141127
  0.9946393244277495  0.2273928570132258  0.8899901291209233
  0.9954169649731521  0.7668570565563277  0.1063993551772860
  0.6562131787529368  0.5520686526943415  0.4364813860602214
  0.4388923622962983  0.1088543048392093  0.4348342100920048
  0.8919851447863965  0.5589868877119155  0.2271380338850520
  0.8904397336287100  0.3275817509900915  0.4329433938784488
  0.4389989078102627  0.3341996972105258  0.2142767317353802
  0.8877949678757396  0.3316725153335781  0.2249333637072868
  0.4308684674002011  0.3269106173325515  0.4305199931529801
  0.4397591764547367  0.1105729214283013  0.2158075554029823
  0.8885397797128775  0.5522260373070177  0.4362302240435174
  0.6599696229553481  0.5643220066557111  0.2278357633274065
  0.6547851008002100  0.0995269877057370  0.4422050092283573
  0.3367857664292836  0.9010953786811388  0.7679281442944346
  0.3307594297297002  0.4370009599698180  0.5515609631602032
  0.1046199273119685  0.4361157828306764  0.7672304089301402
  0.5585170728141333  0.8884692687772788  0.5591127703228261
  0.5528462165930004  0.6557546423741473  0.7724074537624224
  0.0923485006351861  0.6585213482350367  0.5613292692647612
  0.5570728815278249  0.6651783408085390  0.5552434079049683
  0.1056897031731936  0.6619080264168188  0.7701758425618742
  0.0931821890381619  0.4296742805233051  0.5582167202198222
  0.5517235577384035  0.8812157604293576  0.7757539605327183
  0.3329683182931891  0.4262561831521728  0.7617005094575855
  0.7690043055394125  0.7684820788478312  0.8942627786993720
  0.6532233630199357  0.0909245523581794  0.2315304138340479
  0.3310804348896804  0.8976673021017929  0.5552704447632093
  0.5590479722229903  0.0210569276749581  0.0370854790560490
  0.3189650050968539  0.6709965526709150  0.4789074525904817
  0.7600069144498051  0.5682041995811220  0.8098365847631875
 
  0.00000000E+00  0.00000000E+00  0.00000000E+00
  0.00000000E+00  0.00000000E+00  0.00000000E+00
  0.00000000E+00  0.00000000E+00  0.00000000E+00
  0.00000000E+00  0.00000000E+00  0.00000000E+00
  0.00000000E+00  0.00000000E+00  0.00000000E+00
  0.00000000E+00  0.00000000E+00  0.00000000E+00
  0.00000000E+00  0.00000000E+00  0.00000000E+00
  0.00000000E+00  0.00000000E+00  0.00000000E+00
  0.00000000E+00  0.00000000E+00  0.00000000E+00
  0.00000000E+00  0.00000000E+00  0.00000000E+00
  0.00000000E+00  0.00000000E+00  0.00000000E+00
  0.00000000E+00  0.00000000E+00  0.00000000E+00
  0.00000000E+00  0.00000000E+00  0.00000000E+00
  0.00000000E+00  0.00000000E+00  0.00000000E+00
  0.00000000E+00  0.00000000E+00  0.00000000E+00
  0.00000000E+00  0.00000000E+00  0.00000000E+00
  0.00000000E+00  0.00000000E+00  0.00000000E+00
  0.00000000E+00  0.00000000E+00  0.00000000E+00
  0.00000000E+00  0.00000000E+00  0.00000000E+00
  0.00000000E+00  0.00000000E+00  0.00000000E+00
  0.00000000E+00  0.00000000E+00  0.00000000E+00
  0.00000000E+00  0.00000000E+00  0.00000000E+00
  0.00000000E+00  0.00000000E+00  0.00000000E+00
  0.00000000E+00  0.00000000E+00  0.00000000E+00
  0.00000000E+00  0.00000000E+00  0.00000000E+00
  0.00000000E+00  0.00000000E+00  0.00000000E+00
  0.00000000E+00  0.00000000E+00  0.00000000E+00
  0.00000000E+00  0.00000000E+00  0.00000000E+00
  0.00000000E+00  0.00000000E+00  0.00000000E+00
  0.00000000E+00  0.00000000E+00  0.00000000E+00
  0.00000000E+00  0.00000000E+00  0.00000000E+00
  0.00000000E+00  0.00000000E+00  0.00000000E+00
  0.00000000E+00  0.00000000E+00  0.00000000E+00
  0.00000000E+00  0.00000000E+00  0.00000000E+00
  0.00000000E+00  0.00000000E+00  0.00000000E+00
  0.00000000E+00  0.00000000E+00  0.00000000E+00
  0.00000000E+00  0.00000000E+00  0.00000000E+00
  0.00000000E+00  0.00000000E+00  0.00000000E+00
  0.00000000E+00  0.00000000E+00  0.00000000E+00
  0.00000000E+00  0.00000000E+00  0.00000000E+00
  0.00000000E+00  0.00000000E+00  0.00000000E+00
  0.00000000E+00  0.00000000E+00  0.00000000E+00
  0.00000000E+00  0.00000000E+00  0.00000000E+00
  0.00000000E+00  0.00000000E+00  0.00000000E+00
  0.00000000E+00  0.00000000E+00  0.00000000E+00
  0.00000000E+00  0.00000000E+00  0.00000000E+00
  0.00000000E+00  0.00000000E+00  0.00000000E+00
  0.00000000E+00  0.00000000E+00  0.00000000E+00
  0.00000000E+00  0.00000000E+00  0.00000000E+00
  0.00000000E+00  0.00000000E+00  0.00000000E+00
  0.00000000E+00  0.00000000E+00  0.00000000E+00
  0.00000000E+00  0.00000000E+00  0.00000000E+00
  0.00000000E+00  0.00000000E+00  0.00000000E+00
  0.00000000E+00  0.00000000E+00  0.00000000E+00
  0.00000000E+00  0.00000000E+00  0.00000000E+00
  0.00000000E+00  0.00000000E+00  0.00000000E+00
  0.00000000E+00  0.00000000E+00  0.00000000E+00
  0.00000000E+00  0.00000000E+00  0.00000000E+00
  0.00000000E+00  0.00000000E+00  0.00000000E+00
  0.00000000E+00  0.00000000E+00  0.00000000E+00
  0.00000000E+00  0.00000000E+00  0.00000000E+00
  0.00000000E+00  0.00000000E+00  0.00000000E+00
  0.00000000E+00  0.00000000E+00  0.00000000E+00
  0.00000000E+00  0.00000000E+00  0.00000000E+00
  0.00000000E+00  0.00000000E+00  0.00000000E+00
  0.00000000E+00  0.00000000E+00  0.00000000E+00
  0.00000000E+00  0.00000000E+00  0.00000000E+00
  0.00000000E+00  0.00000000E+00  0.00000000E+00
  0.00000000E+00  0.00000000E+00  0.00000000E+00
  0.00000000E+00  0.00000000E+00  0.00000000E+00
  0.00000000E+00  0.00000000E+00  0.00000000E+00
  0.00000000E+00  0.00000000E+00  0.00000000E+00
  0.00000000E+00  0.00000000E+00  0.00000000E+00
  0.00000000E+00  0.00000000E+00  0.00000000E+00
  0.00000000E+00  0.00000000E+00  0.00000000E+00
  0.00000000E+00  0.00000000E+00  0.00000000E+00
  0.00000000E+00  0.00000000E+00  0.00000000E+00
  0.00000000E+00  0.00000000E+00  0.00000000E+00
  0.00000000E+00  0.00000000E+00  0.00000000E+00
  0.00000000E+00  0.00000000E+00  0.00000000E+00
  0.00000000E+00  0.00000000E+00  0.00000000E+00
  0.00000000E+00  0.00000000E+00  0.00000000E+00
  0.00000000E+00  0.00000000E+00  0.00000000E+00
  0.00000000E+00  0.00000000E+00  0.00000000E+00
  0.00000000E+00  0.00000000E+00  0.00000000E+00
  0.00000000E+00  0.00000000E+00  0.00000000E+00
  0.00000000E+00  0.00000000E+00  0.00000000E+00
  0.00000000E+00  0.00000000E+00  0.00000000E+00
  0.00000000E+00  0.00000000E+00  0.00000000E+00
  0.00000000E+00  0.00000000E+00  0.00000000E+00
  0.00000000E+00  0.00000000E+00  0.00000000E+00
  0.00000000E+00  0.00000000E+00  0.00000000E+00
  0.00000000E+00  0.00000000E+00  0.00000000E+00
  0.00000000E+00  0.00000000E+00  0.00000000E+00
  0.00000000E+00  0.00000000E+00  0.00000000E+00
  0.00000000E+00  0.00000000E+00  0.00000000E+00
  0.00000000E+00  0.00000000E+00  0.00000000E+00
  0.00000000E+00  0.00000000E+00  0.00000000E+00
  0.00000000E+00  0.00000000E+00  0.00000000E+00
  0.00000000E+00  0.00000000E+00  0.00000000E+00
  0.00000000E+00  0.00000000E+00  0.00000000E+00
  0.00000000E+00  0.00000000E+00  0.00000000E+00
  0.00000000E+00  0.00000000E+00  0.00000000E+00
  0.00000000E+00  0.00000000E+00  0.00000000E+00
  0.00000000E+00  0.00000000E+00  0.00000000E+00
  0.00000000E+00  0.00000000E+00  0.00000000E+00
  0.00000000E+00  0.00000000E+00  0.00000000E+00
  0.00000000E+00  0.00000000E+00  0.00000000E+00
  0.00000000E+00  0.00000000E+00  0.00000000E+00
  0.00000000E+00  0.00000000E+00  0.00000000E+00
  0.00000000E+00  0.00000000E+00  0.00000000E+00
  0.00000000E+00  0.00000000E+00  0.00000000E+00
  0.00000000E+00  0.00000000E+00  0.00000000E+00
