O  C                                    
   1.00000000000000     
    13.6750001907000005    0.0000000000000000    0.0000000000000000
    -6.8375000954000003   11.8428975618999992    0.0000000000000000
     0.0000000000000000    0.0000000000000000   14.7670001983999999
   S    C    H 
     1     2     6
Direct
  0.7630844155596819  0.4901061984367630  0.6789915569155127
  0.8563599091810801  0.4327434217996711  0.6698946218027544
  0.6302109998977699  0.3649940323082816  0.6535347712127901
  0.8559366950621197  0.4017536387548404  0.6010670065329862
  0.8335181278739512  0.3641827824062602  0.7190399435393786
  0.9419159123001961  0.5016338833119107  0.6853823998288959
  0.6137594191838218  0.2959616658166482  0.7004947852911272
  0.5638376227511515  0.3870993673374130  0.6623155004354402
  0.6277069181902419  0.3368590828281981  0.5833520684411013
 
  0.00000000E+00  0.00000000E+00  0.00000000E+00
  0.00000000E+00  0.00000000E+00  0.00000000E+00
  0.00000000E+00  0.00000000E+00  0.00000000E+00
  0.00000000E+00  0.00000000E+00  0.00000000E+00
  0.00000000E+00  0.00000000E+00  0.00000000E+00
  0.00000000E+00  0.00000000E+00  0.00000000E+00
  0.00000000E+00  0.00000000E+00  0.00000000E+00
  0.00000000E+00  0.00000000E+00  0.00000000E+00
  0.00000000E+00  0.00000000E+00  0.00000000E+00
