O  C                                    
   1.00000000000000     
    13.6750001907000005    0.0000000000000000    0.0000000000000000
    -6.8375000954000003   11.8428975618999992    0.0000000000000000
     0.0000000000000000    0.0000000000000000   14.7670001983999999
   S    C    H 
     1     2     6
Direct
  0.7630844155596792  0.4901061984367612  0.6789915569155146
  0.8563599091810791  0.4327434217996680  0.6698946218027559
  0.6302109998977706  0.3649940323082824  0.6535347712127937
  0.8559366950621196  0.4017536387548413  0.6010670065329844
  0.8335181278739492  0.3641827824062623  0.7190399435393765
  0.9419159123001993  0.5016338833119087  0.6853823998288927
  0.6137594191838226  0.2959616658166462  0.7004947852911273
  0.5638376227511499  0.3870993673374135  0.6623155004354400
  0.6277069181902387  0.3368590828282005  0.5833520684410981
 
  0.00000000E+00  0.00000000E+00  0.00000000E+00
  0.00000000E+00  0.00000000E+00  0.00000000E+00
  0.00000000E+00  0.00000000E+00  0.00000000E+00
  0.00000000E+00  0.00000000E+00  0.00000000E+00
  0.00000000E+00  0.00000000E+00  0.00000000E+00
  0.00000000E+00  0.00000000E+00  0.00000000E+00
  0.00000000E+00  0.00000000E+00  0.00000000E+00
  0.00000000E+00  0.00000000E+00  0.00000000E+00
  0.00000000E+00  0.00000000E+00  0.00000000E+00
