O  C                                    
   1.00000000000000     
    13.6750001907000005    0.0000000000000000    0.0000000000000000
    -6.8375000954000003   11.8428975618999992    0.0000000000000000
     0.0000000000000000    0.0000000000000000   14.7670001983999999
   O    Si   Al   Ag   S    C    H 
    72    33     3     3     1     2     6
Direct
  0.8976013064255781  0.0986395552688037  0.1201239359688842
  0.1112251698254738  0.8915653105122487  0.8804285585185880
  0.8935234102409098  0.7936296327764936  0.1261418972980124
  0.0946499160173886  0.1987043008264635  0.8641768875942546
  0.1962201770929966  0.1048895997624868  0.1158095269316064
  0.8103682531967138  0.9130589238305475  0.8882182147965167
  0.5592698431516396  0.4287743411201745  0.4551614747729289
  0.7624545855750782  0.2322061632476107  0.2190694366459738
  0.5691629871033115  0.1445274068387405  0.4718828768056866
  0.7685328485493059  0.5442667957357941  0.2174124002193949
  0.8593746265737749  0.4257072277132821  0.4541077065497419
  0.4630215906992277  0.2347360265643630  0.1836968819267568
  0.2400245678439887  0.7770849614408490  0.7976489288122366
  0.4270795660331004  0.5723811461628330  0.5253001312504537
  0.2368327874196154  0.4591018157958047  0.7813552276627149
  0.4323937827492372  0.8539583542741553  0.5312548411236051
  0.5238742557334248  0.7563593920007534  0.8031695693902989
  0.1236186741600989  0.5601143905699004  0.5421778598879499
  0.9760023713816537  0.3176566642409568  0.1591553449793750
  0.0214166814673362  0.6735610447041225  0.8375479034440758
  0.6778701309198922  0.6740148379200832  0.1724735653907103
  0.3127086350685673  0.3186787534182045  0.8189961219730506
  0.3164632711370672  0.0144352468288460  0.1801765981062076
  0.6671375275986620  0.9795858924725138  0.8269549419272622
  0.3300653519362484  0.9953485225066032  0.8366979115476383
  0.6755857518904378  0.0021427309547235  0.1638766715674720
  0.6726407535953456  0.6848535178651574  0.8164031784063539
  0.3324104858504384  0.3242830526674894  0.1575639163650067
  0.0200043288136982  0.3428960724899071  0.8350347264069171
  0.9867901869043578  0.6693259000060721  0.1695095689931918
  0.6488838158326686  0.6413731585161457  0.5060735245459540
  0.3455753764590952  0.9989712287864450  0.4790176878626440
  0.9934594492302509  0.3425114107289460  0.4981159944599227
  0.3415114205225223  0.3533843099757945  0.4826978639314277
  0.9833398331229901  0.6386107640774767  0.5090321337816235
  0.6528908697926497  0.0100337376477171  0.5153165835375830
  0.1167388500373008  0.2430190546167665  0.1321601236941348
  0.8905562649245837  0.7592913364326677  0.8590674447919966
  0.7621781617280803  0.8797915439697803  0.1106793925364471
  0.2287345814544253  0.1111393163750378  0.8721463937731215
  0.1120792264470936  0.8838917521757850  0.1273532738793293
  0.8751257876304166  0.1291288232623486  0.8599977757962378
  0.7793981736350588  0.5664629562995316  0.4488445297109180
  0.5340136607947983  0.0852567367430126  0.1756244347375073
  0.4195050915742300  0.2140334119024772  0.4674167558386841
  0.8971616739782036  0.4517844206649002  0.1960649874098621
  0.7853167364236668  0.2081098256180667  0.4517910486256653
  0.5490380759298006  0.4546759264958808  0.1916978383896293
  0.4565358380206206  0.9082766000154265  0.8057177347217319
  0.2112856248565862  0.4309507202250771  0.5318088916059551
  0.1151614940548527  0.5561048068972667  0.7906155664619803
  0.5824058468005404  0.7898641198758085  0.5203722855717672
  0.4544993713978229  0.5360219519367249  0.8003745232633293
  0.2069941081223092  0.7743181045634842  0.5206312095147823
  0.0001691547922533  0.2590517771301535  0.9959647892589558
  0.9949845205758550  0.7302524178076695  0.0016014405115570
  0.7306099544599789  0.7129929119495912  0.0000024379810313
  0.2528440978705078  0.2674410307110335  0.9921195942708678
  0.2720281262757567  0.0042882303600109  0.0047372805044503
  0.6454502485631792  0.5910864533719007  0.3325120753199045
  0.6300162860890808  0.0488797367066951  0.3423763513776947
  0.4412836276205567  0.1085627036504420  0.3261166962616997
  0.9380299368519189  0.5932169683373374  0.3338282756152893
  0.9401121604435616  0.3451035493880852  0.3281960815115639
  0.4076121365454455  0.3261549125783034  0.3218796217950342
  0.3400630946156440  0.9319771476415966  0.6671062371385119
  0.3465394435272131  0.4118194906112649  0.6553541555238738
  0.0670357030120954  0.3970395919146057  0.6653924310530428
  0.5795320061795479  0.9002359879667949  0.6670712776674677
  0.5696288427271696  0.6622466664717450  0.6622518672187070
  0.0819791051350975  0.6778249189137355  0.6679859310491878
  0.7315878052861748  0.0162337210364427  0.9955606443975569
  0.9961137828616415  0.2286156240479187  0.1026158508155035
  0.0046085805519880  0.7655257008648775  0.8958977759839257
  0.7654736279743091  0.7640925665412013  0.0995552256066077
  0.2216114058652323  0.2238637847351228  0.8880128684441289
  0.2236755035263442  0.0025510957622998  0.1066918485471220
  0.7732618064827932  0.0061304263090989  0.8917339444016932
  0.2349681619672950  0.9998665077424462  0.8989019609361364
  0.7683469826238607  0.9990805057868783  0.1001105163677707
  0.2246226537872857  0.2340997001879614  0.0989362469252839
  0.9978435933706038  0.2306816696499752  0.8896940756224367
  0.9954671031281066  0.7693786755242229  0.1056195299092835
  0.6588163115483496  0.5569365006924514  0.4344037319033234
  0.4425822610588597  0.1126057857213922  0.4362342531963037
  0.8957242316377929  0.5634825337224854  0.2288936344036614
  0.8928177295201536  0.3289793948942048  0.4306428426550752
  0.4385994780435283  0.3347270999435068  0.2145139471247433
  0.8894883905664628  0.3331754705024252  0.2251604750709433
  0.4318808186714591  0.3295981331374662  0.4295013405756762
  0.4393340241381196  0.1107166171955924  0.2172833524107105
  0.8903419822743004  0.5556394950375108  0.4357874519901941
  0.6620009156165167  0.5656509860901906  0.2275243969591685
  0.6575941675240458  0.1017297372215538  0.4418993355987197
  0.3411362532094842  0.9045383457483780  0.7717694044642371
  0.3320933128146137  0.4399116785309047  0.5509528114777140
  0.1104322768759332  0.4387274735029720  0.7684834862299539
  0.5611985463712585  0.8906694902917494  0.5582808903470919
  0.5559821521688164  0.6610599028910329  0.7718681450891651
  0.0991455383253879  0.6660650198456821  0.5601209230644102
  0.5588098559318837  0.6677142007756203  0.5543378209317780
  0.1170541530268636  0.6735043764772968  0.7728357195242808
  0.0965191033331720  0.4307267687686007  0.5599514737785114
  0.5562528832015516  0.8847984929169002  0.7745799013198820
  0.3373182035553057  0.4310750590975800  0.7639846543079614
  0.7750563109583695  0.7732820994458649  0.8948775740499499
  0.6543102250701835  0.0941409336341934  0.2314401788176994
  0.3306721883322581  0.8965917209649135  0.5532810676066831
  0.5609842903703068  0.0250691015111428  0.0367570168766278
  0.3219388846133597  0.6733757786612884  0.4758943939512577
  0.7861393471648697  0.6095229601172392  0.7659924693950231
  0.7657702180832331  0.4867753628137308  0.6507329594309965
  0.8590636580972912  0.4321386379283041  0.6711187384331367
  0.6263226644955466  0.3635912540454953  0.6519060442932769
  0.8788734026137774  0.4083878117515312  0.6059090251300248
  0.8242590005231207  0.3609980622164812  0.7183135977585664
  0.9354975314483696  0.5024592819040308  0.6995900868737692
  0.6264978282913916  0.2963479507624243  0.6919952242845255
  0.5690062637849138  0.3883988895043302  0.6825647951846960
  0.6010394823034773  0.3362368037155790  0.5819421887688563
 
  0.00000000E+00  0.00000000E+00  0.00000000E+00
  0.00000000E+00  0.00000000E+00  0.00000000E+00
  0.00000000E+00  0.00000000E+00  0.00000000E+00
  0.00000000E+00  0.00000000E+00  0.00000000E+00
  0.00000000E+00  0.00000000E+00  0.00000000E+00
  0.00000000E+00  0.00000000E+00  0.00000000E+00
  0.00000000E+00  0.00000000E+00  0.00000000E+00
  0.00000000E+00  0.00000000E+00  0.00000000E+00
  0.00000000E+00  0.00000000E+00  0.00000000E+00
  0.00000000E+00  0.00000000E+00  0.00000000E+00
  0.00000000E+00  0.00000000E+00  0.00000000E+00
  0.00000000E+00  0.00000000E+00  0.00000000E+00
  0.00000000E+00  0.00000000E+00  0.00000000E+00
  0.00000000E+00  0.00000000E+00  0.00000000E+00
  0.00000000E+00  0.00000000E+00  0.00000000E+00
  0.00000000E+00  0.00000000E+00  0.00000000E+00
  0.00000000E+00  0.00000000E+00  0.00000000E+00
  0.00000000E+00  0.00000000E+00  0.00000000E+00
  0.00000000E+00  0.00000000E+00  0.00000000E+00
  0.00000000E+00  0.00000000E+00  0.00000000E+00
  0.00000000E+00  0.00000000E+00  0.00000000E+00
  0.00000000E+00  0.00000000E+00  0.00000000E+00
  0.00000000E+00  0.00000000E+00  0.00000000E+00
  0.00000000E+00  0.00000000E+00  0.00000000E+00
  0.00000000E+00  0.00000000E+00  0.00000000E+00
  0.00000000E+00  0.00000000E+00  0.00000000E+00
  0.00000000E+00  0.00000000E+00  0.00000000E+00
  0.00000000E+00  0.00000000E+00  0.00000000E+00
  0.00000000E+00  0.00000000E+00  0.00000000E+00
  0.00000000E+00  0.00000000E+00  0.00000000E+00
  0.00000000E+00  0.00000000E+00  0.00000000E+00
  0.00000000E+00  0.00000000E+00  0.00000000E+00
  0.00000000E+00  0.00000000E+00  0.00000000E+00
  0.00000000E+00  0.00000000E+00  0.00000000E+00
  0.00000000E+00  0.00000000E+00  0.00000000E+00
  0.00000000E+00  0.00000000E+00  0.00000000E+00
  0.00000000E+00  0.00000000E+00  0.00000000E+00
  0.00000000E+00  0.00000000E+00  0.00000000E+00
  0.00000000E+00  0.00000000E+00  0.00000000E+00
  0.00000000E+00  0.00000000E+00  0.00000000E+00
  0.00000000E+00  0.00000000E+00  0.00000000E+00
  0.00000000E+00  0.00000000E+00  0.00000000E+00
  0.00000000E+00  0.00000000E+00  0.00000000E+00
  0.00000000E+00  0.00000000E+00  0.00000000E+00
  0.00000000E+00  0.00000000E+00  0.00000000E+00
  0.00000000E+00  0.00000000E+00  0.00000000E+00
  0.00000000E+00  0.00000000E+00  0.00000000E+00
  0.00000000E+00  0.00000000E+00  0.00000000E+00
  0.00000000E+00  0.00000000E+00  0.00000000E+00
  0.00000000E+00  0.00000000E+00  0.00000000E+00
  0.00000000E+00  0.00000000E+00  0.00000000E+00
  0.00000000E+00  0.00000000E+00  0.00000000E+00
  0.00000000E+00  0.00000000E+00  0.00000000E+00
  0.00000000E+00  0.00000000E+00  0.00000000E+00
  0.00000000E+00  0.00000000E+00  0.00000000E+00
  0.00000000E+00  0.00000000E+00  0.00000000E+00
  0.00000000E+00  0.00000000E+00  0.00000000E+00
  0.00000000E+00  0.00000000E+00  0.00000000E+00
  0.00000000E+00  0.00000000E+00  0.00000000E+00
  0.00000000E+00  0.00000000E+00  0.00000000E+00
  0.00000000E+00  0.00000000E+00  0.00000000E+00
  0.00000000E+00  0.00000000E+00  0.00000000E+00
  0.00000000E+00  0.00000000E+00  0.00000000E+00
  0.00000000E+00  0.00000000E+00  0.00000000E+00
  0.00000000E+00  0.00000000E+00  0.00000000E+00
  0.00000000E+00  0.00000000E+00  0.00000000E+00
  0.00000000E+00  0.00000000E+00  0.00000000E+00
  0.00000000E+00  0.00000000E+00  0.00000000E+00
  0.00000000E+00  0.00000000E+00  0.00000000E+00
  0.00000000E+00  0.00000000E+00  0.00000000E+00
  0.00000000E+00  0.00000000E+00  0.00000000E+00
  0.00000000E+00  0.00000000E+00  0.00000000E+00
  0.00000000E+00  0.00000000E+00  0.00000000E+00
  0.00000000E+00  0.00000000E+00  0.00000000E+00
  0.00000000E+00  0.00000000E+00  0.00000000E+00
  0.00000000E+00  0.00000000E+00  0.00000000E+00
  0.00000000E+00  0.00000000E+00  0.00000000E+00
  0.00000000E+00  0.00000000E+00  0.00000000E+00
  0.00000000E+00  0.00000000E+00  0.00000000E+00
  0.00000000E+00  0.00000000E+00  0.00000000E+00
  0.00000000E+00  0.00000000E+00  0.00000000E+00
  0.00000000E+00  0.00000000E+00  0.00000000E+00
  0.00000000E+00  0.00000000E+00  0.00000000E+00
  0.00000000E+00  0.00000000E+00  0.00000000E+00
  0.00000000E+00  0.00000000E+00  0.00000000E+00
  0.00000000E+00  0.00000000E+00  0.00000000E+00
  0.00000000E+00  0.00000000E+00  0.00000000E+00
  0.00000000E+00  0.00000000E+00  0.00000000E+00
  0.00000000E+00  0.00000000E+00  0.00000000E+00
  0.00000000E+00  0.00000000E+00  0.00000000E+00
  0.00000000E+00  0.00000000E+00  0.00000000E+00
  0.00000000E+00  0.00000000E+00  0.00000000E+00
  0.00000000E+00  0.00000000E+00  0.00000000E+00
  0.00000000E+00  0.00000000E+00  0.00000000E+00
  0.00000000E+00  0.00000000E+00  0.00000000E+00
  0.00000000E+00  0.00000000E+00  0.00000000E+00
  0.00000000E+00  0.00000000E+00  0.00000000E+00
  0.00000000E+00  0.00000000E+00  0.00000000E+00
  0.00000000E+00  0.00000000E+00  0.00000000E+00
  0.00000000E+00  0.00000000E+00  0.00000000E+00
  0.00000000E+00  0.00000000E+00  0.00000000E+00
  0.00000000E+00  0.00000000E+00  0.00000000E+00
  0.00000000E+00  0.00000000E+00  0.00000000E+00
  0.00000000E+00  0.00000000E+00  0.00000000E+00
  0.00000000E+00  0.00000000E+00  0.00000000E+00
  0.00000000E+00  0.00000000E+00  0.00000000E+00
  0.00000000E+00  0.00000000E+00  0.00000000E+00
  0.00000000E+00  0.00000000E+00  0.00000000E+00
  0.00000000E+00  0.00000000E+00  0.00000000E+00
  0.00000000E+00  0.00000000E+00  0.00000000E+00
  0.00000000E+00  0.00000000E+00  0.00000000E+00
  0.00000000E+00  0.00000000E+00  0.00000000E+00
  0.00000000E+00  0.00000000E+00  0.00000000E+00
  0.00000000E+00  0.00000000E+00  0.00000000E+00
  0.00000000E+00  0.00000000E+00  0.00000000E+00
  0.00000000E+00  0.00000000E+00  0.00000000E+00
  0.00000000E+00  0.00000000E+00  0.00000000E+00
  0.00000000E+00  0.00000000E+00  0.00000000E+00
  0.00000000E+00  0.00000000E+00  0.00000000E+00
  0.00000000E+00  0.00000000E+00  0.00000000E+00
