O  C                                    
   1.00000000000000     
    13.6750001907000005    0.0000000000000000    0.0000000000000000
    -6.8375000954000003   11.8428975618999992    0.0000000000000000
     0.0000000000000000    0.0000000000000000   14.7670001983999999
   O    Si   Al   Ag   S    C    H 
    72    33     3     3     1     2     6
Direct
  0.8976013064255771  0.0986395552688049  0.1201239359688843
  0.1112251698254732  0.8915653105122510  0.8804285585185907
  0.8935234102409121  0.7936296327764923  0.1261418972980128
  0.0946499160173911  0.1987043008264607  0.8641768875942554
  0.1962201770929939  0.1048895997624892  0.1158095269316029
  0.8103682531967143  0.9130589238305495  0.8882182147965150
  0.5592698431516389  0.4287743411201725  0.4551614747729309
  0.7624545855750796  0.2322061632476135  0.2190694366459771
  0.5691629871033081  0.1445274068387385  0.4718828768056836
  0.7685328485493069  0.5442667957357923  0.2174124002193922
  0.8593746265737732  0.4257072277132846  0.4541077065497450
  0.4630215906992301  0.2347360265643598  0.1836968819267600
  0.2400245678439911  0.7770849614408485  0.7976489288122356
  0.4270795660330970  0.5723811461628332  0.5253001312504540
  0.2368327874196181  0.4591018157958070  0.7813552276627179
  0.4323937827492382  0.8539583542741574  0.5312548411236063
  0.5238742557334233  0.7563593920007516  0.8031695693902995
  0.1236186741600993  0.5601143905698971  0.5421778598879492
  0.9760023713816527  0.3176566642409565  0.1591553449793732
  0.0214166814673375  0.6735610447041250  0.8375479034440739
  0.6778701309198918  0.6740148379200861  0.1724735653907074
  0.3127086350685646  0.3186787534182033  0.8189961219730538
  0.3164632711370675  0.0144352468288457  0.1801765981062111
  0.6671375275986630  0.9795858924725106  0.8269549419272605
  0.3300653519362456  0.9953485225065998  0.8366979115476396
  0.6755857518904379  0.0021427309547223  0.1638766715674755
  0.6726407535953476  0.6848535178651570  0.8164031784063506
  0.3324104858504372  0.3242830526674870  0.1575639163650083
  0.0200043288137008  0.3428960724899094  0.8350347264069159
  0.9867901869043560  0.6693259000060694  0.1695095689931947
  0.6488838158326655  0.6413731585161487  0.5060735245459563
  0.3455753764590970  0.9989712287864474  0.4790176878626466
  0.9934594492302516  0.3425114107289428  0.4981159944599242
  0.3415114205225226  0.3533843099757952  0.4826978639314268
  0.9833398331229902  0.6386107640774771  0.5090321337816204
  0.6528908697926464  0.0100337376477172  0.5153165835375795
  0.1167388500373012  0.2430190546167658  0.1321601236941352
  0.8905562649245833  0.7592913364326653  0.8590674447919991
  0.7621781617280771  0.8797915439697771  0.1106793925364506
  0.2287345814544237  0.1111393163750344  0.8721463937731225
  0.1120792264470948  0.8838917521757851  0.1273532738793295
  0.8751257876304168  0.1291288232623501  0.8599977757962405
  0.7793981736350586  0.5664629562995324  0.4488445297109155
  0.5340136607947993  0.0852567367430132  0.1756244347375074
  0.4195050915742312  0.2140334119024793  0.4674167558386866
  0.8971616739782068  0.4517844206649019  0.1960649874098629
  0.7853167364236682  0.2081098256180684  0.4517910486256630
  0.5490380759298031  0.4546759264958842  0.1916978383896270
  0.4565358380206182  0.9082766000154291  0.8057177347217328
  0.2112856248565865  0.4309507202250756  0.5318088916059526
  0.1151614940548555  0.5561048068972679  0.7906155664619822
  0.5824058468005369  0.7898641198758065  0.5203722855717704
  0.4544993713978255  0.5360219519367220  0.8003745232633311
  0.2069941081223124  0.7743181045634848  0.5206312095147849
  1.0001691547922538  0.2590517771301550  0.9959647892589524
  0.9949845205758527  0.7302524178076677  0.0016014405115582
  0.7306099544599781  0.7129929119495918  0.0000024379810334
  0.2528440978705065  0.2674410307110313  0.9921195942708675
  0.2720281262757561  1.0042882303600142  0.0047372805044514
  0.6454502485631757  0.5910864533719016  0.3325120753199047
  0.6300162860890773  0.0488797367066938  0.3423763513776978
  0.4412836276205573  0.1085627036504451  0.3261166962616983
  0.9380299368519175  0.5932169683373383  0.3338282756152881
  0.9401121604435643  0.3451035493880880  0.3281960815115605
  0.4076121365454462  0.3261549125783050  0.3218796217950364
  0.3400630946156438  0.9319771476415937  0.6671062371385140
  0.3465394435272144  0.4118194906112679  0.6553541555238732
  0.0670357030120982  0.3970395919146029  0.6653924310530437
  0.5795320061795448  0.9002359879667933  0.6670712776674651
  0.5696288427271703  0.6622466664717448  0.6622518672187090
  0.0819791051350994  0.6778249189137370  0.6679859310491904
  0.7315878052861756  0.0162337210364421  0.9955606443975596
  0.9961137828616422  0.2286156240479167  0.1026158508155019
  1.0046085805519884  0.7655257008648795  0.8958977759839268
  0.7654736279743107  0.7640925665412043  0.0995552256066052
  0.2216114058652326  0.2238637847351212  0.8880128684441277
  0.2236755035263467  1.0025510957623021  0.1066918485471187
  0.7732618064827901  1.0061304263091020  0.8917339444016955
  0.2349681619672915  0.9998665077424446  0.8989019609361385
  0.7683469826238613  0.9990805057868768  0.1001105163677715
  0.2246226537872850  0.2340997001879629  0.0989362469252825
  0.9978435933706014  0.2306816696499729  0.8896940756224374
  0.9954671031281083  0.7693786755242219  0.1056195299092826
  0.6588163115483509  0.5569365006924508  0.4344037319033252
  0.4425822610588598  0.1126057857213945  0.4362342531963012
  0.8957242316377941  0.5634825337224835  0.2288936344036631
  0.8928177295201553  0.3289793948942057  0.4306428426550777
  0.4385994780435314  0.3347270999435087  0.2145139471247415
  0.8894883905664656  0.3331754705024236  0.2251604750709415
  0.4318808186714586  0.3295981331374632  0.4295013405756755
  0.4393340241381211  0.1107166171955914  0.2172833524107103
  0.8903419822743033  0.5556394950375100  0.4357874519901934
  0.6620009156165174  0.5656509860901889  0.2275243969591716
  0.6575941675240448  0.1017297372215520  0.4418993355987190
  0.3411362532094859  0.9045383457483791  0.7717694044642366
  0.3320933128146128  0.4399116785309075  0.5509528114777164
  0.1104322768759355  0.4387274735029742  0.7684834862299567
  0.5611985463712569  0.8906694902917501  0.5582808903470953
  0.5559821521688166  0.6610599028910316  0.7718681450891639
  0.0991455383253902  0.6660650198456788  0.5601209230644110
  0.5588098559318825  0.6677142007756176  0.5543378209317781
  0.1170541530268649  0.6735043764772950  0.7728357195242773
  0.0965191033331695  0.4307267687686003  0.5599514737785104
  0.5562528832015505  0.8847984929168966  0.7745799013198812
  0.3373182035553082  0.4310750590975834  0.7639846543079585
  0.7750563109583700  0.7732820994458659  0.8948775740499494
  0.6543102250701817  0.0941409336341962  0.2314401788177008
  0.3306721883322583  0.8965917209649117  0.5532810676066834
  0.5609842903703071  0.0250691015111434  0.0367570168766298
  0.3219388846133611  0.6733757786612866  0.4758943939512564
  0.7861393471648728  0.6095229601172372  0.7659924693950251
  0.7657702180832336  0.4867753628137298  0.6507329594309977
  0.8590636580972928  0.4321386379283059  0.6711187384331347
  0.6263226644955447  0.3635912540454940  0.6519060442932770
  0.8788734026137803  0.4083878117515341  0.6059090251300252
  0.8242590005231186  0.3609980622164841  0.7183135977585662
  0.9354975314483704  0.5024592819040310  0.6995900868737704
  0.6264978282913928  0.2963479507624242  0.6919952242845285
  0.5690062637849120  0.3883988895043275  0.6825647951846986
  0.6010394823034787  0.3362368037155813  0.5819421887688567
 
  0.00000000E+00  0.00000000E+00  0.00000000E+00
  0.00000000E+00  0.00000000E+00  0.00000000E+00
  0.00000000E+00  0.00000000E+00  0.00000000E+00
  0.00000000E+00  0.00000000E+00  0.00000000E+00
  0.00000000E+00  0.00000000E+00  0.00000000E+00
  0.00000000E+00  0.00000000E+00  0.00000000E+00
  0.00000000E+00  0.00000000E+00  0.00000000E+00
  0.00000000E+00  0.00000000E+00  0.00000000E+00
  0.00000000E+00  0.00000000E+00  0.00000000E+00
  0.00000000E+00  0.00000000E+00  0.00000000E+00
  0.00000000E+00  0.00000000E+00  0.00000000E+00
  0.00000000E+00  0.00000000E+00  0.00000000E+00
  0.00000000E+00  0.00000000E+00  0.00000000E+00
  0.00000000E+00  0.00000000E+00  0.00000000E+00
  0.00000000E+00  0.00000000E+00  0.00000000E+00
  0.00000000E+00  0.00000000E+00  0.00000000E+00
  0.00000000E+00  0.00000000E+00  0.00000000E+00
  0.00000000E+00  0.00000000E+00  0.00000000E+00
  0.00000000E+00  0.00000000E+00  0.00000000E+00
  0.00000000E+00  0.00000000E+00  0.00000000E+00
  0.00000000E+00  0.00000000E+00  0.00000000E+00
  0.00000000E+00  0.00000000E+00  0.00000000E+00
  0.00000000E+00  0.00000000E+00  0.00000000E+00
  0.00000000E+00  0.00000000E+00  0.00000000E+00
  0.00000000E+00  0.00000000E+00  0.00000000E+00
  0.00000000E+00  0.00000000E+00  0.00000000E+00
  0.00000000E+00  0.00000000E+00  0.00000000E+00
  0.00000000E+00  0.00000000E+00  0.00000000E+00
  0.00000000E+00  0.00000000E+00  0.00000000E+00
  0.00000000E+00  0.00000000E+00  0.00000000E+00
  0.00000000E+00  0.00000000E+00  0.00000000E+00
  0.00000000E+00  0.00000000E+00  0.00000000E+00
  0.00000000E+00  0.00000000E+00  0.00000000E+00
  0.00000000E+00  0.00000000E+00  0.00000000E+00
  0.00000000E+00  0.00000000E+00  0.00000000E+00
  0.00000000E+00  0.00000000E+00  0.00000000E+00
  0.00000000E+00  0.00000000E+00  0.00000000E+00
  0.00000000E+00  0.00000000E+00  0.00000000E+00
  0.00000000E+00  0.00000000E+00  0.00000000E+00
  0.00000000E+00  0.00000000E+00  0.00000000E+00
  0.00000000E+00  0.00000000E+00  0.00000000E+00
  0.00000000E+00  0.00000000E+00  0.00000000E+00
  0.00000000E+00  0.00000000E+00  0.00000000E+00
  0.00000000E+00  0.00000000E+00  0.00000000E+00
  0.00000000E+00  0.00000000E+00  0.00000000E+00
  0.00000000E+00  0.00000000E+00  0.00000000E+00
  0.00000000E+00  0.00000000E+00  0.00000000E+00
  0.00000000E+00  0.00000000E+00  0.00000000E+00
  0.00000000E+00  0.00000000E+00  0.00000000E+00
  0.00000000E+00  0.00000000E+00  0.00000000E+00
  0.00000000E+00  0.00000000E+00  0.00000000E+00
  0.00000000E+00  0.00000000E+00  0.00000000E+00
  0.00000000E+00  0.00000000E+00  0.00000000E+00
  0.00000000E+00  0.00000000E+00  0.00000000E+00
  0.00000000E+00  0.00000000E+00  0.00000000E+00
  0.00000000E+00  0.00000000E+00  0.00000000E+00
  0.00000000E+00  0.00000000E+00  0.00000000E+00
  0.00000000E+00  0.00000000E+00  0.00000000E+00
  0.00000000E+00  0.00000000E+00  0.00000000E+00
  0.00000000E+00  0.00000000E+00  0.00000000E+00
  0.00000000E+00  0.00000000E+00  0.00000000E+00
  0.00000000E+00  0.00000000E+00  0.00000000E+00
  0.00000000E+00  0.00000000E+00  0.00000000E+00
  0.00000000E+00  0.00000000E+00  0.00000000E+00
  0.00000000E+00  0.00000000E+00  0.00000000E+00
  0.00000000E+00  0.00000000E+00  0.00000000E+00
  0.00000000E+00  0.00000000E+00  0.00000000E+00
  0.00000000E+00  0.00000000E+00  0.00000000E+00
  0.00000000E+00  0.00000000E+00  0.00000000E+00
  0.00000000E+00  0.00000000E+00  0.00000000E+00
  0.00000000E+00  0.00000000E+00  0.00000000E+00
  0.00000000E+00  0.00000000E+00  0.00000000E+00
  0.00000000E+00  0.00000000E+00  0.00000000E+00
  0.00000000E+00  0.00000000E+00  0.00000000E+00
  0.00000000E+00  0.00000000E+00  0.00000000E+00
  0.00000000E+00  0.00000000E+00  0.00000000E+00
  0.00000000E+00  0.00000000E+00  0.00000000E+00
  0.00000000E+00  0.00000000E+00  0.00000000E+00
  0.00000000E+00  0.00000000E+00  0.00000000E+00
  0.00000000E+00  0.00000000E+00  0.00000000E+00
  0.00000000E+00  0.00000000E+00  0.00000000E+00
  0.00000000E+00  0.00000000E+00  0.00000000E+00
  0.00000000E+00  0.00000000E+00  0.00000000E+00
  0.00000000E+00  0.00000000E+00  0.00000000E+00
  0.00000000E+00  0.00000000E+00  0.00000000E+00
  0.00000000E+00  0.00000000E+00  0.00000000E+00
  0.00000000E+00  0.00000000E+00  0.00000000E+00
  0.00000000E+00  0.00000000E+00  0.00000000E+00
  0.00000000E+00  0.00000000E+00  0.00000000E+00
  0.00000000E+00  0.00000000E+00  0.00000000E+00
  0.00000000E+00  0.00000000E+00  0.00000000E+00
  0.00000000E+00  0.00000000E+00  0.00000000E+00
  0.00000000E+00  0.00000000E+00  0.00000000E+00
  0.00000000E+00  0.00000000E+00  0.00000000E+00
  0.00000000E+00  0.00000000E+00  0.00000000E+00
  0.00000000E+00  0.00000000E+00  0.00000000E+00
  0.00000000E+00  0.00000000E+00  0.00000000E+00
  0.00000000E+00  0.00000000E+00  0.00000000E+00
  0.00000000E+00  0.00000000E+00  0.00000000E+00
  0.00000000E+00  0.00000000E+00  0.00000000E+00
  0.00000000E+00  0.00000000E+00  0.00000000E+00
  0.00000000E+00  0.00000000E+00  0.00000000E+00
  0.00000000E+00  0.00000000E+00  0.00000000E+00
  0.00000000E+00  0.00000000E+00  0.00000000E+00
  0.00000000E+00  0.00000000E+00  0.00000000E+00
  0.00000000E+00  0.00000000E+00  0.00000000E+00
  0.00000000E+00  0.00000000E+00  0.00000000E+00
  0.00000000E+00  0.00000000E+00  0.00000000E+00
  0.00000000E+00  0.00000000E+00  0.00000000E+00
  0.00000000E+00  0.00000000E+00  0.00000000E+00
  0.00000000E+00  0.00000000E+00  0.00000000E+00
  0.00000000E+00  0.00000000E+00  0.00000000E+00
  0.00000000E+00  0.00000000E+00  0.00000000E+00
  0.00000000E+00  0.00000000E+00  0.00000000E+00
  0.00000000E+00  0.00000000E+00  0.00000000E+00
  0.00000000E+00  0.00000000E+00  0.00000000E+00
  0.00000000E+00  0.00000000E+00  0.00000000E+00
  0.00000000E+00  0.00000000E+00  0.00000000E+00
  0.00000000E+00  0.00000000E+00  0.00000000E+00
  0.00000000E+00  0.00000000E+00  0.00000000E+00
