O  C                                    
1.0
       13.6750001907         0.0000000000         0.0000000000
       -6.8375000954        11.8428975619         0.0000000000
        0.0000000000         0.0000000000        14.7670001984
    O   Si   Al   Ag    S    C
   73   33    3    3    1    1
Direct
     0.898071349         0.097130850         0.118202098
     0.108109936         0.888833046         0.881980538
     0.894102335         0.794903874         0.128548488
     0.095285550         0.195551395         0.866325676
     0.195882127         0.103649169         0.115509570
     0.801041543         0.903159201         0.881313145
     0.554978251         0.426975608         0.456329793
     0.763554215         0.233464509         0.219454482
     0.567393422         0.142230928         0.471208334
     0.766320050         0.538777769         0.206101075
     0.863719702         0.425148934         0.462626427
     0.465003908         0.236331567         0.183432639
     0.231476158         0.775149882         0.776327789
     0.425140172         0.569742203         0.524057806
     0.232829407         0.450865477         0.773978949
     0.429104447         0.851211846         0.530244231
     0.532551885         0.756487191         0.805043161
     0.124068290         0.559993863         0.533432186
     0.976801038         0.315435052         0.160986185
     0.021550123         0.669503987         0.841402113
     0.678409338         0.673343778         0.173247010
     0.312989503         0.316281646         0.818543494
     0.317994088         0.015399022         0.179401517
     0.664495707         0.980999470         0.825812519
     0.326408833         0.986540556         0.838425100
     0.676979601         0.003938812         0.162022710
     0.672371566         0.672586203         0.812181234
     0.331917971         0.323136508         0.158064917
     0.018035691         0.336387098         0.831902444
     0.987252355         0.670611382         0.173394501
     0.647447288         0.641394615         0.504190087
     0.343455017         0.994089723         0.475545287
     0.994809508         0.337847531         0.498307168
     0.337143451         0.350108325         0.481688917
     0.986320257         0.642896831         0.504700303
     0.650156140         0.008088264         0.515555322
     0.117291346         0.242602035         0.129564941
     0.889203727         0.752944887         0.854230583
     0.760595977         0.877876520         0.110373266
     0.229932725         0.108609110         0.871164978
     0.112900287         0.882669210         0.127314597
     0.875883162         0.122701235         0.859452546
     0.774502218         0.556262314         0.467798114
     0.535527825         0.086522259         0.175139695
     0.416218311         0.210351124         0.468063384
     0.902097404         0.453115106         0.195490435
     0.784473121         0.206431061         0.452290446
     0.546405971         0.456202835         0.195350319
     0.448181570         0.893580317         0.807447016
     0.209961191         0.428373098         0.539763331
     0.120753579         0.554979861         0.801676571
     0.579774201         0.788073301         0.520003796
     0.451088309         0.534884989         0.800732672
     0.202435613         0.776389658         0.544378340
     0.998234391         0.258322179         0.994997084
     0.989927828         0.728344321         0.003024421
     0.734243691         0.712633073         0.999494433
     0.256096691         0.266162068         0.991672516
     0.271519303         0.002406836         0.004669717
     0.661401451         0.589523971         0.334302306
     0.631099463         0.048523027         0.341667116
     0.441704512         0.109169371         0.325444251
     0.919671834         0.584523559         0.335481673
     0.939170122         0.346578747         0.330180854
     0.405444741         0.322548926         0.322670162
     0.358798742         0.949176311         0.667106688
     0.352647990         0.409920961         0.654540062
     0.059849959         0.406686217         0.665478230
     0.575320423         0.897031724         0.667115569
     0.567431569         0.659728050         0.660974085
     0.054069061         0.640814722         0.670434058
     0.731274545         0.011929193         0.993680477
     0.737550020         0.240079999         0.705139995
     0.996063173         0.227677569         0.101672210
     0.002413034         0.761904895         0.896623015
     0.765976489         0.763223827         0.099686101
     0.222990528         0.221483603         0.887960851
     0.223994374         0.001762550         0.106584534
     0.770424724         0.000772715         0.889342785
     0.233212575         0.995979607         0.899099410
     0.768539071         0.997862041         0.098701648
     0.225443527         0.233174041         0.098289154
     0.997305036         0.226657748         0.889394462
     0.994845212         0.768937051         0.107447498
     0.659474850         0.552911580         0.438492417
     0.440780789         0.110257037         0.435653776
     0.892740309         0.560757220         0.227654874
     0.893222570         0.327394605         0.433432341
     0.437872559         0.334137768         0.215706721
     0.891042233         0.333439410         0.226205513
     0.428814441         0.326197624         0.430525720
     0.440717250         0.111886464         0.216696069
     0.886306465         0.551296592         0.440579265
     0.664211094         0.564354181         0.226817742
     0.656557918         0.100416876         0.441611886
     0.340792596         0.902478814         0.768175542
     0.331663132         0.437301278         0.551708758
     0.108365096         0.436902344         0.768600643
     0.558038712         0.888425946         0.557992339
     0.556424499         0.656741261         0.770728230
     0.092780761         0.659283280         0.564094186
     0.556464255         0.665681720         0.553007603
     0.109483495         0.662809253         0.771806598
     0.094891489         0.430983484         0.559880912
     0.554466665         0.881012201         0.775035858
     0.337121040         0.427558839         0.762186766
     0.772944152         0.765409768         0.891290426
     0.655686319         0.095089227         0.230957791
     0.331889421         0.899123311         0.556486130
     0.560618401         0.023406997         0.036701374
     0.318928093         0.671274126         0.479244143
     0.789934397         0.605684817         0.751470983
     0.755639970         0.445870012         0.676490009
     0.747586787         0.336277992         0.689363420
