O  C                                    
   1.00000000000000     
    13.6750001907000005    0.0000000000000000    0.0000000000000000
    -6.8375000954000003   11.8428975618999992    0.0000000000000000
     0.0000000000000000    0.0000000000000000   14.7670001983999999
   O    Si   Al   Ag   S 
    74    33     3     3     1
Direct
  0.8986561546919560  0.0988878416090273  0.1175150585216045
  0.1071888078503989  0.8883798761937527  0.8820679668853444
  0.8944842562537332  0.7950351843421259  0.1284400326609827
  0.0955819850191801  0.1982551902950362  0.8660326181555007
  0.1956815322608350  0.1040963389671106  0.1164744368889288
  0.8024605507774965  0.9048247063288883  0.8812344525091689
  0.5548518086683814  0.4268292861676244  0.4559147978811353
  0.7642079194737477  0.2342159790734826  0.2196750815695410
  0.5669141246864910  0.1421525337402016  0.4709414096749569
  0.7667123171282455  0.5398711910000813  0.2068995275619088
  0.8642718737930508  0.4257095380113256  0.4643104583861017
  0.4654448868922145  0.2372028001293103  0.1831779941925191
  0.2318744483770772  0.7766576042149609  0.7758186007058470
  0.4243648903079986  0.5698518674022779  0.5247053587730619
  0.2313875809551007  0.4486987845561003  0.7715541373393933
  0.4293442028863694  0.8520335982957050  0.5306209532550170
  0.5313735076507271  0.7575218594498168  0.8055053372421810
  0.1252351893555286  0.5606056770774828  0.5326208546817313
  0.9777220425180175  0.3168580384478261  0.1616688784808176
  0.0217798568806913  0.6695076579915096  0.8412083830905814
  0.6788829075186342  0.6743303115202295  0.1738557504672613
  0.3135997564410644  0.3169244833066500  0.8191561299627992
  0.3187248045378155  0.0160670785821537  0.1784807851742300
  0.6643831103832625  0.9813763173913372  0.8266233243302281
  0.3255686608561987  0.9876723784648078  0.8379752808539394
  0.6776832045273622  0.0047800982325299  0.1625198223975985
  0.6712845230102218  0.6737842729897565  0.8132080561412423
  0.3325066756458241  0.3240096135796477  0.1576938005554638
  0.0167976213834677  0.3377076422676168  0.8315971597996210
  0.9877570062126324  0.6713789864222832  0.1741440503419085
  0.6465612037282966  0.6406637215453515  0.5053211338198054
  0.3429668350689283  0.9939094162936684  0.4745806932770478
  0.9950253431452936  0.3381776671568701  0.4985456628073308
  0.3370469646235250  0.3506157931954590  0.4815445688260809
  0.9865005115022569  0.6430533109810028  0.5054702103125379
  0.6504356605574486  0.0080228922595751  0.5149531877565039
  0.1177900278905781  0.2437583423239573  0.1296160762466059
  0.8880352722500078  0.7517908765269894  0.8548989847583783
  0.7623701436387478  0.8794681454163609  0.1116784056166082
  0.2272133673650814  0.1080840325579615  0.8703334211373459
  0.1133152498533292  0.8829662094923663  0.1268445862711616
  0.8757247308249489  0.1242612606370415  0.8608907424822334
  0.7745338715979244  0.5565891751764056  0.4683497283987634
  0.5362355151885794  0.0875535280960520  0.1748723227783202
  0.4154399787495606  0.2101462193481254  0.4677189949287808
  0.9020311724149721  0.4538447939218244  0.1954231057923224
  0.7845211781422918  0.2068967689743673  0.4517596552341274
  0.5468039740032324  0.4570950474180577  0.1960347795786319
  0.4485468940883024  0.8958849206042032  0.8070920420800078
  0.2093438472017368  0.4269301520743909  0.5430447018702083
  0.1231798363603787  0.5566148091340395  0.8024875126502167
  0.5792431005178074  0.7879989406020016  0.5201783677934486
  0.4497809280548211  0.5359954119542607  0.8014617381385492
  0.2026891664504333  0.7770100520346546  0.5450376967175217
  0.9995609650301347  0.2614394630139216  0.9952348094407313
  0.9899067916345672  0.7276470169854576  0.0031671815825547
  0.7338971770153861  0.7141447433869246  0.9999852018017279
  0.2557799483339807  0.2656295803810949  0.9917545928581717
  0.2709530553352764  0.0038933617932315  0.0041105459213711
  0.6617711261640622  0.5906160340706847  0.3350728498044759
  0.6310340755140729  0.0491269208693978  0.3416812003969270
  0.4416217981482333  0.1097328126648023  0.3249861258055802
  0.9198490116892160  0.5842979713068956  0.3361700686952247
  0.9395725205724119  0.3484481873169258  0.3306185096487653
  0.4049540231567335  0.3226817982758732  0.3225325175633742
  0.3585434802551930  0.9508144424332770  0.6666731262611663
  0.3550193944009550  0.4100517393978649  0.6548285577762414
  0.0571540449268326  0.4089232237054858  0.6656925698237117
  0.5755043578854426  0.8971670418367168  0.6672101974622464
  0.5666153759662151  0.6602178563440617  0.6617179094242900
  0.0546579273163701  0.6391983388651923  0.6705886811485087
  0.7308835917745213  0.0115019682980417  0.9941456618761038
  0.7548412179945814  0.4421237461210055  0.6883474050490079
  0.7396186294193612  0.2551225264306396  0.6692358214238610
  0.9968169894890053  0.2294438670863244  0.1017470762932220
  0.0017447873770138  0.7613053048200982  0.8967100615513175
  0.7664455029733830  0.7642259215568998  0.1002767752282878
  0.2224694768478486  0.2219693552627717  0.8878998026424725
  0.2240644240751024  0.0024686323817917  0.1063847517460417
  0.7705578509854973  0.0016001310411013  0.8896372620505133
  0.2319606917313592  0.9963080024451045  0.8986590995578396
  0.7691779846801978  0.9988271511607110  0.0990848055208744
  0.2255937557883456  0.2336161887585462  0.0985382338024792
  0.9972204215786888  0.2284606442403785  0.8897600577617482
  0.9952113077651958  0.7690765659827576  0.1074614580891691
  0.6592789997702866  0.5530054142242307  0.4391122608454552
  0.4405715725407688  0.1103946085119745  0.4352621061500059
  0.8930067006462608  0.5614610576594785  0.2282204285535769
  0.8932239590260238  0.3278307557218270  0.4337683836082391
  0.4381547457536286  0.3348218303832837  0.2157331954121133
  0.8914630938208532  0.3345067758128408  0.2265569422391636
  0.4285178768160733  0.3262216213078588  0.4303890345485470
  0.4411586640338072  0.1126570223649423  0.2162843311929521
  0.8863408249366529  0.5515665140143824  0.4412994788349565
  0.6645175038867208  0.5653561771309299  0.2275883241168160
  0.6564577416850241  0.1007725394270409  0.4418025783620934
  0.3410375608034784  0.9043321653062719  0.7677079648070659
  0.3319437138767256  0.4371394392894743  0.5524779015535017
  0.1083882925284669  0.4378084638495991  0.7684463352989326
  0.5583982845126201  0.8891029123285890  0.5581649358102752
  0.5553219669865328  0.6578721719372709  0.7714272328174516
  0.0935457801335957  0.6595503302297203  0.5641231799204007
  0.5558843609047628  0.6658096714035224  0.5536727078955295
  0.1106138580163645  0.6637378160365586  0.7720050249352397
  0.0949241504770768  0.4314753031178498  0.5601271336080629
  0.5546089583558000  0.8825920152121398  0.7750736936310076
  0.3374582947782798  0.4275596059863744  0.7620498981235926
  0.7730729308517326  0.7667093769025328  0.8917533602912613
  0.6560890670611599  0.0959197324387162  0.2311847627120116
  0.3322118534156715  0.9001206552080632  0.5562940694087857
  0.5603575594631849  0.0224038984121293  0.0371317931421515
  0.3202450431162305  0.6725421272359142  0.4790757474132263
  0.7832023803865553  0.6016333053220748  0.7545414335523830
  0.7974603284282225  0.3651201612148469  0.7102289644540036
 
  0.00000000E+00  0.00000000E+00  0.00000000E+00
  0.00000000E+00  0.00000000E+00  0.00000000E+00
  0.00000000E+00  0.00000000E+00  0.00000000E+00
  0.00000000E+00  0.00000000E+00  0.00000000E+00
  0.00000000E+00  0.00000000E+00  0.00000000E+00
  0.00000000E+00  0.00000000E+00  0.00000000E+00
  0.00000000E+00  0.00000000E+00  0.00000000E+00
  0.00000000E+00  0.00000000E+00  0.00000000E+00
  0.00000000E+00  0.00000000E+00  0.00000000E+00
  0.00000000E+00  0.00000000E+00  0.00000000E+00
  0.00000000E+00  0.00000000E+00  0.00000000E+00
  0.00000000E+00  0.00000000E+00  0.00000000E+00
  0.00000000E+00  0.00000000E+00  0.00000000E+00
  0.00000000E+00  0.00000000E+00  0.00000000E+00
  0.00000000E+00  0.00000000E+00  0.00000000E+00
  0.00000000E+00  0.00000000E+00  0.00000000E+00
  0.00000000E+00  0.00000000E+00  0.00000000E+00
  0.00000000E+00  0.00000000E+00  0.00000000E+00
  0.00000000E+00  0.00000000E+00  0.00000000E+00
  0.00000000E+00  0.00000000E+00  0.00000000E+00
  0.00000000E+00  0.00000000E+00  0.00000000E+00
  0.00000000E+00  0.00000000E+00  0.00000000E+00
  0.00000000E+00  0.00000000E+00  0.00000000E+00
  0.00000000E+00  0.00000000E+00  0.00000000E+00
  0.00000000E+00  0.00000000E+00  0.00000000E+00
  0.00000000E+00  0.00000000E+00  0.00000000E+00
  0.00000000E+00  0.00000000E+00  0.00000000E+00
  0.00000000E+00  0.00000000E+00  0.00000000E+00
  0.00000000E+00  0.00000000E+00  0.00000000E+00
  0.00000000E+00  0.00000000E+00  0.00000000E+00
  0.00000000E+00  0.00000000E+00  0.00000000E+00
  0.00000000E+00  0.00000000E+00  0.00000000E+00
  0.00000000E+00  0.00000000E+00  0.00000000E+00
  0.00000000E+00  0.00000000E+00  0.00000000E+00
  0.00000000E+00  0.00000000E+00  0.00000000E+00
  0.00000000E+00  0.00000000E+00  0.00000000E+00
  0.00000000E+00  0.00000000E+00  0.00000000E+00
  0.00000000E+00  0.00000000E+00  0.00000000E+00
  0.00000000E+00  0.00000000E+00  0.00000000E+00
  0.00000000E+00  0.00000000E+00  0.00000000E+00
  0.00000000E+00  0.00000000E+00  0.00000000E+00
  0.00000000E+00  0.00000000E+00  0.00000000E+00
  0.00000000E+00  0.00000000E+00  0.00000000E+00
  0.00000000E+00  0.00000000E+00  0.00000000E+00
  0.00000000E+00  0.00000000E+00  0.00000000E+00
  0.00000000E+00  0.00000000E+00  0.00000000E+00
  0.00000000E+00  0.00000000E+00  0.00000000E+00
  0.00000000E+00  0.00000000E+00  0.00000000E+00
  0.00000000E+00  0.00000000E+00  0.00000000E+00
  0.00000000E+00  0.00000000E+00  0.00000000E+00
  0.00000000E+00  0.00000000E+00  0.00000000E+00
  0.00000000E+00  0.00000000E+00  0.00000000E+00
  0.00000000E+00  0.00000000E+00  0.00000000E+00
  0.00000000E+00  0.00000000E+00  0.00000000E+00
  0.00000000E+00  0.00000000E+00  0.00000000E+00
  0.00000000E+00  0.00000000E+00  0.00000000E+00
  0.00000000E+00  0.00000000E+00  0.00000000E+00
  0.00000000E+00  0.00000000E+00  0.00000000E+00
  0.00000000E+00  0.00000000E+00  0.00000000E+00
  0.00000000E+00  0.00000000E+00  0.00000000E+00
  0.00000000E+00  0.00000000E+00  0.00000000E+00
  0.00000000E+00  0.00000000E+00  0.00000000E+00
  0.00000000E+00  0.00000000E+00  0.00000000E+00
  0.00000000E+00  0.00000000E+00  0.00000000E+00
  0.00000000E+00  0.00000000E+00  0.00000000E+00
  0.00000000E+00  0.00000000E+00  0.00000000E+00
  0.00000000E+00  0.00000000E+00  0.00000000E+00
  0.00000000E+00  0.00000000E+00  0.00000000E+00
  0.00000000E+00  0.00000000E+00  0.00000000E+00
  0.00000000E+00  0.00000000E+00  0.00000000E+00
  0.00000000E+00  0.00000000E+00  0.00000000E+00
  0.00000000E+00  0.00000000E+00  0.00000000E+00
  0.00000000E+00  0.00000000E+00  0.00000000E+00
  0.00000000E+00  0.00000000E+00  0.00000000E+00
  0.00000000E+00  0.00000000E+00  0.00000000E+00
  0.00000000E+00  0.00000000E+00  0.00000000E+00
  0.00000000E+00  0.00000000E+00  0.00000000E+00
  0.00000000E+00  0.00000000E+00  0.00000000E+00
  0.00000000E+00  0.00000000E+00  0.00000000E+00
  0.00000000E+00  0.00000000E+00  0.00000000E+00
  0.00000000E+00  0.00000000E+00  0.00000000E+00
  0.00000000E+00  0.00000000E+00  0.00000000E+00
  0.00000000E+00  0.00000000E+00  0.00000000E+00
  0.00000000E+00  0.00000000E+00  0.00000000E+00
  0.00000000E+00  0.00000000E+00  0.00000000E+00
  0.00000000E+00  0.00000000E+00  0.00000000E+00
  0.00000000E+00  0.00000000E+00  0.00000000E+00
  0.00000000E+00  0.00000000E+00  0.00000000E+00
  0.00000000E+00  0.00000000E+00  0.00000000E+00
  0.00000000E+00  0.00000000E+00  0.00000000E+00
  0.00000000E+00  0.00000000E+00  0.00000000E+00
  0.00000000E+00  0.00000000E+00  0.00000000E+00
  0.00000000E+00  0.00000000E+00  0.00000000E+00
  0.00000000E+00  0.00000000E+00  0.00000000E+00
  0.00000000E+00  0.00000000E+00  0.00000000E+00
  0.00000000E+00  0.00000000E+00  0.00000000E+00
  0.00000000E+00  0.00000000E+00  0.00000000E+00
  0.00000000E+00  0.00000000E+00  0.00000000E+00
  0.00000000E+00  0.00000000E+00  0.00000000E+00
  0.00000000E+00  0.00000000E+00  0.00000000E+00
  0.00000000E+00  0.00000000E+00  0.00000000E+00
  0.00000000E+00  0.00000000E+00  0.00000000E+00
  0.00000000E+00  0.00000000E+00  0.00000000E+00
  0.00000000E+00  0.00000000E+00  0.00000000E+00
  0.00000000E+00  0.00000000E+00  0.00000000E+00
  0.00000000E+00  0.00000000E+00  0.00000000E+00
  0.00000000E+00  0.00000000E+00  0.00000000E+00
  0.00000000E+00  0.00000000E+00  0.00000000E+00
  0.00000000E+00  0.00000000E+00  0.00000000E+00
  0.00000000E+00  0.00000000E+00  0.00000000E+00
  0.00000000E+00  0.00000000E+00  0.00000000E+00
  0.00000000E+00  0.00000000E+00  0.00000000E+00
  0.00000000E+00  0.00000000E+00  0.00000000E+00
  0.00000000E+00  0.00000000E+00  0.00000000E+00
