O  C                                    
   1.00000000000000     
    13.6750001907000005    0.0000000000000000    0.0000000000000000
    -6.8375000954000003   11.8428975618999992    0.0000000000000000
     0.0000000000000000    0.0000000000000000   14.7670001983999999
   S    H 
     1     2
Direct
  0.7565167905575976  0.4124728522170074  0.7088126411285813
  0.8678774186849338  0.4664674503625363  0.6895522928339730
  0.7302033597574678  0.4197317464204602  0.6219419510374422
 
             NaN             NaN             NaN
             NaN             NaN             NaN
             NaN             NaN             NaN
