O  C                                    
   1.00000000000000     
    13.6750001907000005    0.0000000000000000    0.0000000000000000
    -6.8375000954000003   11.8428975618999992    0.0000000000000000
     0.0000000000000000    0.0000000000000000   14.7670001983999999
   O    Si   Al   Ag
    73    33     3     3
Direct
  0.8965281362188841  0.0949380474401107  0.1197524590743804
  0.1014008313436881  0.8867088578796455  0.8804539335551307
  0.8906926656527469  0.7923831627128676  0.1299373055825967
  0.0932091676942789  0.1941314031806201  0.8673198513454239
  0.1927925404511425  0.1013940396915470  0.1171207941274902
  0.7990406068705910  0.9013694088769835  0.8827712901304081
  0.5519880822998495  0.4241366742312636  0.4584056978950892
  0.7610638245860252  0.2320578545097536  0.2196896293772312
  0.5638429327105431  0.1397559186898160  0.4711428889532827
  0.7638120115203358  0.5363746853733228  0.2044188221697652
  0.8629309340183368  0.4238979632412765  0.4609617813725154
  0.4617757895760154  0.2336690923077783  0.1840610276353228
  0.2288812190585135  0.7718236519084865  0.7773385504874837
  0.4229787457226350  0.5679015717192962  0.5253080299368814
  0.2308731336132275  0.4494884072687213  0.7752930420706237
  0.4267702951537693  0.8490125762086947  0.5316336878574655
  0.5309565193833681  0.7545301089001771  0.8055835423115461
  0.1206489047432205  0.5570635669664018  0.5337797671073575
  0.9742797629742619  0.3135504216373777  0.1611238636486797
  0.0190851879339397  0.6673943277829222  0.8419530312315607
  0.6752840927378124  0.6712942147684281  0.1756145566308921
  0.3110093738923837  0.3146280617679211  0.8193275925665017
  0.3157787464241483  0.0126579997076513  0.1779551040723554
  0.6612729136877836  0.9777884379856919  0.8280674024478484
  0.3211757107144010  0.9820222399026077  0.8391920125214199
  0.6751220694192833  0.0027183175215966  0.1630055190398987
  0.6708094974936599  0.6715255745956499  0.8127877725923918
  0.3293072667703067  0.3210553148911010  0.1587241073494901
  0.0156978725089095  0.3343491115142841  0.8326620705300908
  0.9845288120377536  0.6679511755742225  0.1730451568191947
  0.6450090448040178  0.6396967220790432  0.5033898926251066
  0.3401551250105843  0.9912413046726931  0.4760524593504474
  0.9921903866712390  0.3348135730145141  0.4989948890386328
  0.3344244419099019  0.3481339948733488  0.4820669390795170
  0.9845653611610995  0.6417735360598951  0.5044797576374213
  0.6474293699205542  0.0060782881869468  0.5160140707597959
  0.1154075734776023  0.2415787637551308  0.1291292337511448
  0.8821555250990075  0.7458871354372365  0.8543992173156011
  0.7576211932002070  0.8758537391883460  0.1116183777885156
  0.2263604437805876  0.1060182850025374  0.8697615744847583
  0.1093230090240160  0.8803300952242752  0.1285314894685162
  0.8739681193856387  0.1200193122641804  0.8594140768282187
  0.7719287834039791  0.5536688646612009  0.4700395713800404
  0.5333136066725166  0.0847847991170169  0.1756299266526047
  0.4120317480626370  0.2071577677566025  0.4677257725638021
  0.9008203168344124  0.4515485123552284  0.1977612213268229
  0.7814256885579268  0.2046630797759706  0.4531407981653103
  0.5439218866355353  0.4537101704539376  0.1946649248907284
  0.4453026462116804  0.8910375722981849  0.8077530286175858
  0.2077204918808905  0.4269054975395986  0.5397920529189385
  0.1176398270012002  0.5523161285492024  0.8023417211320794
  0.5776334570287531  0.7863306709722452  0.5207463958148010
  0.4494924899692611  0.5328066563892647  0.8006187957965262
  0.2004817254400401  0.7734669156063594  0.5442275189649097
  0.9942320531638824  0.2552724094267479  0.9954518604259355
  0.9855864086316174  0.7274632473247533  0.0031074953525928
  0.7301979634500939  0.7098618624935851  0.0017119946940055
  0.2545810262089011  0.2627166311143772  0.9921250769247746
  0.2646333137225412  0.9986345735291787  0.0041317080278841
  0.6593209803046515  0.5841949842043895  0.3349518490332023
  0.6287901303807182  0.0469093234196470  0.3423706204173985
  0.4370762238123831  0.1051666434158697  0.3255005506760904
  0.9150172501956542  0.5843721025535392  0.3359329746250975
  0.9371111559972664  0.3421368746877473  0.3307718635442987
  0.4042050926944397  0.3219514521147374  0.3232242882225489
  0.3548800589450844  0.9462518442720560  0.6678246454718241
  0.3496743020590447  0.4077681875294696  0.6550635107407689
  0.0582558358506315  0.4040541371049302  0.6660632600030967
  0.5735278218785338  0.8944334260679420  0.6679814605761178
  0.5677506298683220  0.6582061832559898  0.6610675931861327
  0.0524868897054944  0.6395867381708786  0.6706716748208900
  0.7303550358602756  0.0109587370548821  0.9948893765222572
  0.7933213196868012  0.5121752079123016  0.6609299755965876
  0.9936041536102952  0.2257188929006335  0.1021209000919465
  0.9986134779108387  0.7586030763432766  0.8964179554156707
  0.7625297122661855  0.7610206053924239  0.1020756542628270
  0.2206569381602614  0.2192949785774475  0.8882319595570546
  0.2202925417068562 -0.0007524199055232  0.1068779764499240
  0.7683525300239050  0.9993992991928546  0.8903631775249005
  0.2277914943600206  0.9927259033072082  0.8983793015542103
  0.7667515683784185  0.9965102225925356  0.1000721875713470
  0.2231198992121742  0.2309888415092494  0.0988172352219185
  0.9946188586995659  0.2245581278067887  0.8898027186353008
  0.9915401652979944  0.7667688761264259  0.1082583890140093
  0.6568193750360537  0.5494657252301203  0.4397080417465850
  0.4372240181194169  0.1073143106743328  0.4358126837496951
  0.8899700046647789  0.5587683636070723  0.2281712060311567
  0.8909010218583774  0.3247748964312712  0.4340154204146495
  0.4353705204589845  0.3319736612605111  0.2161277932156734
  0.8889210433746028  0.3311273491294736  0.2271960607495444
  0.4260855238776100  0.3238913307529497  0.4312521679703888
  0.4376519112928439  0.1091135148741364  0.2168133664733953
  0.8838920044642493  0.5494675059114794  0.4412722668840595
  0.6615999926195858  0.5610724935898533  0.2271587976135777
  0.6537775954556461  0.0987017058665858  0.4424646284272524
  0.3374398071147465  0.8993882276927991  0.7687142019553297
  0.3289948320082444  0.4352666644061536  0.5521277039034137
  0.1057563907276272  0.4345315557807535  0.7691846256824719
  0.5559403251904946  0.8867873760452136  0.5588539279598482
  0.5533697557970173  0.6547219777626886  0.7701975690317683
  0.0902276315542829  0.6568711129180729  0.5642526780479029
  0.5544969781915207  0.6638972331780398  0.5529021385946928
  0.1066056832703297  0.6599908849614782  0.7721163629876144
  0.0919950297335502  0.4283073547429078  0.5603815099690801
  0.5522183216256150  0.8794980784570722  0.7757050241296831
  0.3344285649355068  0.4253446754320472  0.7626537687787817
  0.7694651256492205  0.7641271453028545  0.8945668210814330
  0.6534156505611458  0.0936826373981567  0.2318609065015038
  0.3292802747884793  0.8967497916739821  0.5570856439561027
  0.5610449183401452  0.0250710013141709  0.0368378069767053
  0.3157479586927301  0.6692580993713377  0.4802925405353264
  0.7814630971992146  0.6147752587489608  0.7474981266796118
 
  0.00000000E+00  0.00000000E+00  0.00000000E+00
  0.00000000E+00  0.00000000E+00  0.00000000E+00
  0.00000000E+00  0.00000000E+00  0.00000000E+00
  0.00000000E+00  0.00000000E+00  0.00000000E+00
  0.00000000E+00  0.00000000E+00  0.00000000E+00
  0.00000000E+00  0.00000000E+00  0.00000000E+00
  0.00000000E+00  0.00000000E+00  0.00000000E+00
  0.00000000E+00  0.00000000E+00  0.00000000E+00
  0.00000000E+00  0.00000000E+00  0.00000000E+00
  0.00000000E+00  0.00000000E+00  0.00000000E+00
  0.00000000E+00  0.00000000E+00  0.00000000E+00
  0.00000000E+00  0.00000000E+00  0.00000000E+00
  0.00000000E+00  0.00000000E+00  0.00000000E+00
  0.00000000E+00  0.00000000E+00  0.00000000E+00
  0.00000000E+00  0.00000000E+00  0.00000000E+00
  0.00000000E+00  0.00000000E+00  0.00000000E+00
  0.00000000E+00  0.00000000E+00  0.00000000E+00
  0.00000000E+00  0.00000000E+00  0.00000000E+00
  0.00000000E+00  0.00000000E+00  0.00000000E+00
  0.00000000E+00  0.00000000E+00  0.00000000E+00
  0.00000000E+00  0.00000000E+00  0.00000000E+00
  0.00000000E+00  0.00000000E+00  0.00000000E+00
  0.00000000E+00  0.00000000E+00  0.00000000E+00
  0.00000000E+00  0.00000000E+00  0.00000000E+00
  0.00000000E+00  0.00000000E+00  0.00000000E+00
  0.00000000E+00  0.00000000E+00  0.00000000E+00
  0.00000000E+00  0.00000000E+00  0.00000000E+00
  0.00000000E+00  0.00000000E+00  0.00000000E+00
  0.00000000E+00  0.00000000E+00  0.00000000E+00
  0.00000000E+00  0.00000000E+00  0.00000000E+00
  0.00000000E+00  0.00000000E+00  0.00000000E+00
  0.00000000E+00  0.00000000E+00  0.00000000E+00
  0.00000000E+00  0.00000000E+00  0.00000000E+00
  0.00000000E+00  0.00000000E+00  0.00000000E+00
  0.00000000E+00  0.00000000E+00  0.00000000E+00
  0.00000000E+00  0.00000000E+00  0.00000000E+00
  0.00000000E+00  0.00000000E+00  0.00000000E+00
  0.00000000E+00  0.00000000E+00  0.00000000E+00
  0.00000000E+00  0.00000000E+00  0.00000000E+00
  0.00000000E+00  0.00000000E+00  0.00000000E+00
  0.00000000E+00  0.00000000E+00  0.00000000E+00
  0.00000000E+00  0.00000000E+00  0.00000000E+00
  0.00000000E+00  0.00000000E+00  0.00000000E+00
  0.00000000E+00  0.00000000E+00  0.00000000E+00
  0.00000000E+00  0.00000000E+00  0.00000000E+00
  0.00000000E+00  0.00000000E+00  0.00000000E+00
  0.00000000E+00  0.00000000E+00  0.00000000E+00
  0.00000000E+00  0.00000000E+00  0.00000000E+00
  0.00000000E+00  0.00000000E+00  0.00000000E+00
  0.00000000E+00  0.00000000E+00  0.00000000E+00
  0.00000000E+00  0.00000000E+00  0.00000000E+00
  0.00000000E+00  0.00000000E+00  0.00000000E+00
  0.00000000E+00  0.00000000E+00  0.00000000E+00
  0.00000000E+00  0.00000000E+00  0.00000000E+00
  0.00000000E+00  0.00000000E+00  0.00000000E+00
  0.00000000E+00  0.00000000E+00  0.00000000E+00
  0.00000000E+00  0.00000000E+00  0.00000000E+00
  0.00000000E+00  0.00000000E+00  0.00000000E+00
  0.00000000E+00  0.00000000E+00  0.00000000E+00
  0.00000000E+00  0.00000000E+00  0.00000000E+00
  0.00000000E+00  0.00000000E+00  0.00000000E+00
  0.00000000E+00  0.00000000E+00  0.00000000E+00
  0.00000000E+00  0.00000000E+00  0.00000000E+00
  0.00000000E+00  0.00000000E+00  0.00000000E+00
  0.00000000E+00  0.00000000E+00  0.00000000E+00
  0.00000000E+00  0.00000000E+00  0.00000000E+00
  0.00000000E+00  0.00000000E+00  0.00000000E+00
  0.00000000E+00  0.00000000E+00  0.00000000E+00
  0.00000000E+00  0.00000000E+00  0.00000000E+00
  0.00000000E+00  0.00000000E+00  0.00000000E+00
  0.00000000E+00  0.00000000E+00  0.00000000E+00
  0.00000000E+00  0.00000000E+00  0.00000000E+00
  0.00000000E+00  0.00000000E+00  0.00000000E+00
  0.00000000E+00  0.00000000E+00  0.00000000E+00
  0.00000000E+00  0.00000000E+00  0.00000000E+00
  0.00000000E+00  0.00000000E+00  0.00000000E+00
  0.00000000E+00  0.00000000E+00  0.00000000E+00
  0.00000000E+00  0.00000000E+00  0.00000000E+00
  0.00000000E+00  0.00000000E+00  0.00000000E+00
  0.00000000E+00  0.00000000E+00  0.00000000E+00
  0.00000000E+00  0.00000000E+00  0.00000000E+00
  0.00000000E+00  0.00000000E+00  0.00000000E+00
  0.00000000E+00  0.00000000E+00  0.00000000E+00
  0.00000000E+00  0.00000000E+00  0.00000000E+00
  0.00000000E+00  0.00000000E+00  0.00000000E+00
  0.00000000E+00  0.00000000E+00  0.00000000E+00
  0.00000000E+00  0.00000000E+00  0.00000000E+00
  0.00000000E+00  0.00000000E+00  0.00000000E+00
  0.00000000E+00  0.00000000E+00  0.00000000E+00
  0.00000000E+00  0.00000000E+00  0.00000000E+00
  0.00000000E+00  0.00000000E+00  0.00000000E+00
  0.00000000E+00  0.00000000E+00  0.00000000E+00
  0.00000000E+00  0.00000000E+00  0.00000000E+00
  0.00000000E+00  0.00000000E+00  0.00000000E+00
  0.00000000E+00  0.00000000E+00  0.00000000E+00
  0.00000000E+00  0.00000000E+00  0.00000000E+00
  0.00000000E+00  0.00000000E+00  0.00000000E+00
  0.00000000E+00  0.00000000E+00  0.00000000E+00
  0.00000000E+00  0.00000000E+00  0.00000000E+00
  0.00000000E+00  0.00000000E+00  0.00000000E+00
  0.00000000E+00  0.00000000E+00  0.00000000E+00
  0.00000000E+00  0.00000000E+00  0.00000000E+00
  0.00000000E+00  0.00000000E+00  0.00000000E+00
  0.00000000E+00  0.00000000E+00  0.00000000E+00
  0.00000000E+00  0.00000000E+00  0.00000000E+00
  0.00000000E+00  0.00000000E+00  0.00000000E+00
  0.00000000E+00  0.00000000E+00  0.00000000E+00
  0.00000000E+00  0.00000000E+00  0.00000000E+00
  0.00000000E+00  0.00000000E+00  0.00000000E+00
  0.00000000E+00  0.00000000E+00  0.00000000E+00
  0.00000000E+00  0.00000000E+00  0.00000000E+00
  0.00000000E+00  0.00000000E+00  0.00000000E+00
