O  C 
1.0
       13.6750001907         0.0000000000         0.0000000000
       -6.8375000954        11.8428975619         0.0000000000
        0.0000000000         0.0000000000        14.7670001984
    O   Si   Al   Ag
   73   33    3    3
Direct
     0.897715211         0.096482009         0.119564362
     0.102262840         0.885155320         0.881776631
     0.891359568         0.791204631         0.124651387
     0.092768796         0.195093051         0.868301749
     0.194005951         0.102970131         0.116858982
     0.795978785         0.898952901         0.881235242
     0.551052451         0.423399746         0.459738880
     0.761741161         0.233931452         0.219862610
     0.564228773         0.140638337         0.471598029
     0.763932586         0.535541594         0.202979431
     0.862438679         0.423289955         0.466811329
     0.463878393         0.235997707         0.183732688
     0.226891935         0.773158550         0.769912064
     0.423256099         0.567119360         0.525125265
     0.227800235         0.445455819         0.772614121
     0.425577641         0.847779930         0.532735467
     0.528906822         0.754212320         0.805415273
     0.122378215         0.558505535         0.532977939
     0.975713909         0.314133912         0.163075015
     0.019141782         0.667283893         0.841344655
     0.678854167         0.673961937         0.178735331
     0.309990376         0.312960386         0.818486512
     0.317024946         0.014822669         0.178301215
     0.659105659         0.977854073         0.829624832
     0.320499957         0.981759310         0.838940322
     0.676752448         0.004354210         0.163525075
     0.666308820         0.667933524         0.815389872
     0.330363274         0.322424173         0.158550203
     0.013746536         0.333876252         0.832022429
     0.986001074         0.671137452         0.177577019
     0.645034194         0.639317870         0.504223347
     0.340854466         0.990029335         0.474109411
     0.993582308         0.335594743         0.498414129
     0.333233058         0.347385883         0.481451213
     0.984635949         0.641397297         0.504348457
     0.646021187         0.005140127         0.515466273
     0.116652153         0.243392527         0.128232747
     0.882512748         0.745915711         0.862200856
     0.760696650         0.877728283         0.115011930
     0.224673510         0.104917429         0.870746911
     0.110068910         0.882285893         0.130288601
     0.873015106         0.119127125         0.860524714
     0.770205617         0.549659729         0.475035697
     0.534595788         0.086412556         0.174853921
     0.411162525         0.206322789         0.467773646
     0.903002739         0.453377187         0.196146935
     0.781615317         0.204640031         0.454414248
     0.544390142         0.456062168         0.195915684
     0.442760706         0.889358044         0.806909204
     0.208119959         0.427124113         0.541563928
     0.120082937         0.553641140         0.801884949
     0.576928735         0.785676003         0.521664262
     0.445770621         0.532325387         0.800876319
     0.199066907         0.775415540         0.549857616
     0.993780673         0.257352561         0.995640159
     0.994412243         0.725102663         0.005248857
     0.722923398         0.709958017         0.002638614
     0.255822778         0.264067978         0.991702497
     0.265699893         0.999198079         0.004631146
     0.663478911         0.583031237         0.336522013
     0.629482508         0.048672758         0.342128277
     0.439515203         0.107542127         0.325014740
     0.910467625         0.579370618         0.336909115
     0.935772896         0.345843732         0.331816703
     0.404793769         0.322143823         0.323203772
     0.358521014         0.951583624         0.667114437
     0.350634605         0.406459630         0.654712021
     0.055671409         0.405837148         0.665556490
     0.573982060         0.895863771         0.668488801
     0.565946102         0.657078624         0.662122428
     0.045610249         0.631326079         0.670489967
     0.730326414         0.009441460         0.995634973
     0.824242353         0.535714984         0.610000014
     0.994472384         0.227157682         0.102109589
     0.998103023         0.757367253         0.898672581
     0.762391686         0.761481345         0.101851277
     0.219952807         0.218814224         0.888365924
     0.221115395         0.000443835         0.107147858
     0.767055750         0.997662723         0.890539050
     0.227228552         0.991927922         0.899049699
     0.768038929         0.997072518         0.100808933
     0.224282160         0.232416853         0.098342739
     0.993388891         0.224615321         0.890217662
     0.994082391         0.767090559         0.108317859
     0.656891286         0.548460066         0.441498697
     0.437560737         0.107383311         0.435185403
     0.889952064         0.558866918         0.227963418
     0.890723050         0.324947596         0.435226828
     0.436375678         0.333480150         0.216021985
     0.889601469         0.332802773         0.227142245
     0.425318837         0.323208898         0.431254297
     0.439300686         0.111136198         0.216191977
     0.882619739         0.548128426         0.442367971
     0.663373709         0.562010705         0.227930740
     0.653601587         0.098789096         0.442603409
     0.337207168         0.900924802         0.767075479
     0.329320729         0.434656143         0.552339673
     0.104361221         0.433966637         0.768782556
     0.555314362         0.886302292         0.559616506
     0.551627636         0.653964460         0.771693110
     0.090360194         0.656786025         0.564420879
     0.554457307         0.663463712         0.554140806
     0.106056191         0.659849942         0.772017002
     0.092650123         0.429149806         0.560412049
     0.551070273         0.879320741         0.776215911
     0.333121240         0.423700333         0.762070119
     0.768256545         0.761605322         0.894727290
     0.654350877         0.095225409         0.231471136
     0.329848737         0.898000717         0.557636857
     0.563222349         0.026059728         0.036189277
     0.318155050         0.668792605         0.480815828
     0.752583861         0.582025468         0.755748451
