O  C                                    
   1.00000000000000     
    13.6750001907000005    0.0000000000000000    0.0000000000000000
    -6.8375000954000003   11.8428975618999992    0.0000000000000000
     0.0000000000000000    0.0000000000000000   14.7670001983999999
   O    Si   Al   Ag
    72    33     3     3
Direct
  0.8962382385053892  0.0929822330190341  0.1200590051481603
  0.1081736369712990  0.8856731798954701  0.8862520801240523
  0.8909972482448826  0.7934198950821070  0.1289318301771219
  0.0910065455444541  0.1902670901764006  0.8675222764269978
  0.1926064778194281  0.1014250923360800  0.1178740873961858
  0.7941200811395804  0.8988635536694134  0.8825570237358510
  0.5494509132547390  0.4253813090450222  0.4563988542837118
  0.7597703293550009  0.2330820678503424  0.2202899940861206
  0.5640945707451485  0.1400335051255239  0.4730341137148859
  0.7629096564883789  0.5340211891956175  0.2015654697434743
  0.8626332139572888  0.4232193592832949  0.4633375840320601
  0.4615673716099979  0.2335946456112087  0.1850664212616033
  0.2241339908025385  0.7720748894836692  0.7756151514662458
  0.4234384731933006  0.5667421535848989  0.5240497061925417
  0.2322287570469804  0.4528071073271091  0.7776345043826632
  0.4248243642015020  0.8475533395516216  0.5330314478050203
  0.5324827074475385  0.7526690953294789  0.8051615049769655
  0.1181370478581009  0.5573104657448655  0.5370439659008382
  0.9724260570665894  0.3113475229034848  0.1616183374767398
  0.0151456499700277  0.6663035867422721  0.8424098379612796
  0.6757315834290243  0.6702685966045931  0.1747158895629344
  0.3082107872189330  0.3134912829993055  0.8190165671186620
  0.3143044952689054  0.0126331560426434  0.1818842444794112
  0.6576204342355751  0.9770553406037877  0.8293785121443181
  0.3252262192828874  0.9824799959195536  0.8412192324555851
  0.6757624612852846  0.0032137613012433  0.1641399395843327
  0.6734315231865425  0.6695118387655027  0.8098532011287893
  0.3295091962967810  0.3213407899896953  0.1580486627491771
  0.0166073751457124  0.3335754723472287  0.8336557031223339
  0.9846102075926082  0.6700218079063904  0.1766031575713681
  0.6459880368291435  0.6409182955372384  0.5025430240876453
  0.3402654091086914  0.9913389620428288  0.4771494735119808
  0.9924007699083540  0.3350997479546541  0.4993443307801585
  0.3319547968480814  0.3461584026832805  0.4831323526507590
  0.9826228880111850  0.6418723807320258  0.5041772568754461
  0.6458003691702958  0.0047736577837380  0.5164049267290172
  0.1149581897699851  0.2413134703592607  0.1300421045436112
  0.8898796949313259  0.7571603490730253  0.8565338972572121
  0.7552520601914713  0.8740463780601877  0.1108008910622503
  0.2280459997317714  0.1055328493426031  0.8708147073583955
  0.1102204505491210  0.8806178139708558  0.1266455537446398
  0.8719526820312090  0.1187654233937364  0.8594700940378999
  0.7689344672447331  0.5496284770353772  0.4749103938083815
  0.5322540037996645  0.0839964349763220  0.1765510799800656
  0.4127524596482279  0.2078856887470121  0.4693624796294733
  0.9029436121719047  0.4526155175846064  0.1979694221647238
  0.7813237049569346  0.2039953822660998  0.4547454235521783
  0.5427765829428177  0.4535304404867924  0.1982972916076256
  0.4407801747594844  0.8831232932671647  0.8070855957220842
  0.2084492984618232  0.4303900097858115  0.5380706907412148
  0.1140480692377479  0.5515598388337013  0.8003126989927899
  0.5760742931234376  0.7854247001736063  0.5206817439746386
  0.4507828020063791  0.5313490686299963  0.8003993141235494
  0.1979307249415784  0.7740129230507899  0.5476921459151713
  0.9934112175842033  0.2531812968721979  0.9957747013138477
  0.9852472660119104  0.7235738490926854  0.0051340863322660
  0.7300319163844475  0.7086348315483380  0.0004680534170074
  0.2527512442997651  0.2618920931723842  0.9921103112642629
  0.2719116038512431  1.0039094526512018  0.0067877505941374
  0.6659751072946594  0.5860963202908709  0.3349127126525811
  0.6287271727394453  0.0477771888603529  0.3430840134915896
  0.4387752902871523  0.1066939396241784  0.3271814920572086
  0.9088773710183917  0.5810029469494814  0.3367528443687833
  0.9357477668286407  0.3419310640431955  0.3314191796037406
  0.3995596804316185  0.3183902553091626  0.3236801682277543
  0.3552544266452776  0.9470353673059342  0.6689442654155301
  0.3464173192158103  0.4075905374551623  0.6554096875936726
  0.0590076036249959  0.4014894022496011  0.6667431045274870
  0.5732741040351949  0.8935877817043084  0.6684771890244295
  0.5671266571327779  0.6561081529834848  0.6602520075568294
  0.0440842568104898  0.6388682009599211  0.6713676343317221
  0.7293939987601883  0.0113748186874051  0.9955259801660713
  0.9926679421564760  0.2240183628359712  0.1025693861543428
  1.0001044622004227  0.7601933905828788  0.8994832631821833
  0.7621789613591189  0.7601800727426418  0.1005156740750416
  0.2193605709013646  0.2175554466919471  0.8883309157523589
  0.2216693778680851  0.0002673126327824  0.1081789180721856
  0.7656227482231408  0.9980244310924883  0.8906110189035324
  0.2328545305382936  0.9942532628961178  0.9011675378400010
  0.7659146150367370  0.9954795495887834  0.1002977294158902
  0.2225300581858466  0.2307785707016997  0.0989984617515908
  0.9933425562995805  0.2222535857654602  0.8900418633444798
  0.9915839058036071  0.7667851654731260  0.1090126459049453
  0.6569534833070747  0.5495037896583139  0.4396690164530352
  0.4376076874956674  0.1077629228860898  0.4374019624385014
  0.8889200285906960  0.5581123317273312  0.2281551029138919
  0.8903949996757933  0.3241391064823650  0.4348447764609058
  0.4339935797906486  0.3311558073014399  0.2170525804655585
  0.8882485341150298  0.3309457580014656  0.2274463945260221
  0.4237645404802498  0.3228752286710805  0.4314519384842985
  0.4374852159946758  0.1092058968497421  0.2184639845352996
  0.8811736394851526  0.5476721371574478  0.4422995366042179
  0.6625616504440979  0.5607501824536988  0.2268251611448694
  0.6533459144529662  0.0983964226881525  0.4434801972134160
  0.3364244071756974  0.8979216360214465  0.7692425559760121
  0.3280707915476163  0.4352070513706457  0.5520549406895188
  0.1057934722954081  0.4342603651849052  0.7700619358109076
  0.5544811000191243  0.8856189827597394  0.5596076325128759
  0.5560154047578866  0.6531492143144987  0.7700866492366816
  0.0873118687312584  0.6571104829814625  0.5656117688677534
  0.5542486889121576  0.6633353325462071  0.5525370190611402
  0.1024488154721941  0.6595023921532778  0.7721450161483693
  0.0916390050561884  0.4285451547079275  0.5611430677723184
  0.5508193719050856  0.8764278626233205  0.7761725837944407
  0.3339911829958230  0.4258122717878090  0.7635137897578796
  0.7691870196556480  0.7622662460394132  0.8925786226109848
  0.6531181338820354  0.0939600576661248  0.2323600879022131
  0.3282545999630704  0.8965758710570523  0.5585035666963684
  0.5611482881857613  0.0256388411832662  0.0373584700115840
  0.3146356422565169  0.6677565519811420  0.4826865652486333
  0.8113667942878089  0.6425648327732488  0.7300421722663948
 
  0.00000000E+00  0.00000000E+00  0.00000000E+00
  0.00000000E+00  0.00000000E+00  0.00000000E+00
  0.00000000E+00  0.00000000E+00  0.00000000E+00
  0.00000000E+00  0.00000000E+00  0.00000000E+00
  0.00000000E+00  0.00000000E+00  0.00000000E+00
  0.00000000E+00  0.00000000E+00  0.00000000E+00
  0.00000000E+00  0.00000000E+00  0.00000000E+00
  0.00000000E+00  0.00000000E+00  0.00000000E+00
  0.00000000E+00  0.00000000E+00  0.00000000E+00
  0.00000000E+00  0.00000000E+00  0.00000000E+00
  0.00000000E+00  0.00000000E+00  0.00000000E+00
  0.00000000E+00  0.00000000E+00  0.00000000E+00
  0.00000000E+00  0.00000000E+00  0.00000000E+00
  0.00000000E+00  0.00000000E+00  0.00000000E+00
  0.00000000E+00  0.00000000E+00  0.00000000E+00
  0.00000000E+00  0.00000000E+00  0.00000000E+00
  0.00000000E+00  0.00000000E+00  0.00000000E+00
  0.00000000E+00  0.00000000E+00  0.00000000E+00
  0.00000000E+00  0.00000000E+00  0.00000000E+00
  0.00000000E+00  0.00000000E+00  0.00000000E+00
  0.00000000E+00  0.00000000E+00  0.00000000E+00
  0.00000000E+00  0.00000000E+00  0.00000000E+00
  0.00000000E+00  0.00000000E+00  0.00000000E+00
  0.00000000E+00  0.00000000E+00  0.00000000E+00
  0.00000000E+00  0.00000000E+00  0.00000000E+00
  0.00000000E+00  0.00000000E+00  0.00000000E+00
  0.00000000E+00  0.00000000E+00  0.00000000E+00
  0.00000000E+00  0.00000000E+00  0.00000000E+00
  0.00000000E+00  0.00000000E+00  0.00000000E+00
  0.00000000E+00  0.00000000E+00  0.00000000E+00
  0.00000000E+00  0.00000000E+00  0.00000000E+00
  0.00000000E+00  0.00000000E+00  0.00000000E+00
  0.00000000E+00  0.00000000E+00  0.00000000E+00
  0.00000000E+00  0.00000000E+00  0.00000000E+00
  0.00000000E+00  0.00000000E+00  0.00000000E+00
  0.00000000E+00  0.00000000E+00  0.00000000E+00
  0.00000000E+00  0.00000000E+00  0.00000000E+00
  0.00000000E+00  0.00000000E+00  0.00000000E+00
  0.00000000E+00  0.00000000E+00  0.00000000E+00
  0.00000000E+00  0.00000000E+00  0.00000000E+00
  0.00000000E+00  0.00000000E+00  0.00000000E+00
  0.00000000E+00  0.00000000E+00  0.00000000E+00
  0.00000000E+00  0.00000000E+00  0.00000000E+00
  0.00000000E+00  0.00000000E+00  0.00000000E+00
  0.00000000E+00  0.00000000E+00  0.00000000E+00
  0.00000000E+00  0.00000000E+00  0.00000000E+00
  0.00000000E+00  0.00000000E+00  0.00000000E+00
  0.00000000E+00  0.00000000E+00  0.00000000E+00
  0.00000000E+00  0.00000000E+00  0.00000000E+00
  0.00000000E+00  0.00000000E+00  0.00000000E+00
  0.00000000E+00  0.00000000E+00  0.00000000E+00
  0.00000000E+00  0.00000000E+00  0.00000000E+00
  0.00000000E+00  0.00000000E+00  0.00000000E+00
  0.00000000E+00  0.00000000E+00  0.00000000E+00
  0.00000000E+00  0.00000000E+00  0.00000000E+00
  0.00000000E+00  0.00000000E+00  0.00000000E+00
  0.00000000E+00  0.00000000E+00  0.00000000E+00
  0.00000000E+00  0.00000000E+00  0.00000000E+00
  0.00000000E+00  0.00000000E+00  0.00000000E+00
  0.00000000E+00  0.00000000E+00  0.00000000E+00
  0.00000000E+00  0.00000000E+00  0.00000000E+00
  0.00000000E+00  0.00000000E+00  0.00000000E+00
  0.00000000E+00  0.00000000E+00  0.00000000E+00
  0.00000000E+00  0.00000000E+00  0.00000000E+00
  0.00000000E+00  0.00000000E+00  0.00000000E+00
  0.00000000E+00  0.00000000E+00  0.00000000E+00
  0.00000000E+00  0.00000000E+00  0.00000000E+00
  0.00000000E+00  0.00000000E+00  0.00000000E+00
  0.00000000E+00  0.00000000E+00  0.00000000E+00
  0.00000000E+00  0.00000000E+00  0.00000000E+00
  0.00000000E+00  0.00000000E+00  0.00000000E+00
  0.00000000E+00  0.00000000E+00  0.00000000E+00
  0.00000000E+00  0.00000000E+00  0.00000000E+00
  0.00000000E+00  0.00000000E+00  0.00000000E+00
  0.00000000E+00  0.00000000E+00  0.00000000E+00
  0.00000000E+00  0.00000000E+00  0.00000000E+00
  0.00000000E+00  0.00000000E+00  0.00000000E+00
  0.00000000E+00  0.00000000E+00  0.00000000E+00
  0.00000000E+00  0.00000000E+00  0.00000000E+00
  0.00000000E+00  0.00000000E+00  0.00000000E+00
  0.00000000E+00  0.00000000E+00  0.00000000E+00
  0.00000000E+00  0.00000000E+00  0.00000000E+00
  0.00000000E+00  0.00000000E+00  0.00000000E+00
  0.00000000E+00  0.00000000E+00  0.00000000E+00
  0.00000000E+00  0.00000000E+00  0.00000000E+00
  0.00000000E+00  0.00000000E+00  0.00000000E+00
  0.00000000E+00  0.00000000E+00  0.00000000E+00
  0.00000000E+00  0.00000000E+00  0.00000000E+00
  0.00000000E+00  0.00000000E+00  0.00000000E+00
  0.00000000E+00  0.00000000E+00  0.00000000E+00
  0.00000000E+00  0.00000000E+00  0.00000000E+00
  0.00000000E+00  0.00000000E+00  0.00000000E+00
  0.00000000E+00  0.00000000E+00  0.00000000E+00
  0.00000000E+00  0.00000000E+00  0.00000000E+00
  0.00000000E+00  0.00000000E+00  0.00000000E+00
  0.00000000E+00  0.00000000E+00  0.00000000E+00
  0.00000000E+00  0.00000000E+00  0.00000000E+00
  0.00000000E+00  0.00000000E+00  0.00000000E+00
  0.00000000E+00  0.00000000E+00  0.00000000E+00
  0.00000000E+00  0.00000000E+00  0.00000000E+00
  0.00000000E+00  0.00000000E+00  0.00000000E+00
  0.00000000E+00  0.00000000E+00  0.00000000E+00
  0.00000000E+00  0.00000000E+00  0.00000000E+00
  0.00000000E+00  0.00000000E+00  0.00000000E+00
  0.00000000E+00  0.00000000E+00  0.00000000E+00
  0.00000000E+00  0.00000000E+00  0.00000000E+00
  0.00000000E+00  0.00000000E+00  0.00000000E+00
  0.00000000E+00  0.00000000E+00  0.00000000E+00
  0.00000000E+00  0.00000000E+00  0.00000000E+00
  0.00000000E+00  0.00000000E+00  0.00000000E+00
  0.00000000E+00  0.00000000E+00  0.00000000E+00
