O  C                                    
   1.00000000000000     
    13.6750001907000005    0.0000000000000000    0.0000000000000000
    -6.8375000954000003   11.8428975618999992    0.0000000000000000
     0.0000000000000000    0.0000000000000000   14.7670001983999999
   O    Si   Al   Ag   S 
    74    33     3     3     1
Direct
  0.8995144270386675  0.0985147988085302  0.1180428253852739
  0.1064670517564466  0.8906403636703715  0.8779999577508519
  0.8940342227225742  0.7949071063235706  0.1288465923818904
  0.0957392246434239  0.1968435850467785  0.8643381257626999
  0.1970389380557904  0.1051065642356548  0.1148824049757309
  0.8031399227976266  0.9065076689980600  0.8788965127779704
  0.5561735879905427  0.4279223253491296  0.4541656423589870
  0.7642913026282372  0.2346328726007130  0.2176261256620506
  0.5662157211304404  0.1417282727407567  0.4702865667874363
  0.7678673491814720  0.5407205822442123  0.2050510088375574
  0.8663999394011697  0.4282907673398597  0.4584629321455509
  0.4652503454791983  0.2365334980708695  0.1825060082821111
  0.2309926306071830  0.7770076395827417  0.7736656857652306
  0.4255003875995982  0.5712926995629672  0.5245207006973516
  0.2341228100917689  0.4526186168939930  0.7719598927995648
  0.4298575725958003  0.8529363075834553  0.5296044584076967
  0.5346671437358168  0.7580914406668668  0.8045530505411520
  0.1252120078612293  0.5614207418014345  0.5327143533127483
  0.9777602498361517  0.3171958786685565  0.1594278810534888
  0.0223222484410144  0.6703424891543932  0.8409324467273507
  0.6777689395748752  0.6732947123250810  0.1711377979122659
  0.3139842422613128  0.3178881279944079  0.8179741863358885
  0.3190398745729439  0.0157382725678943  0.1769691059081140
  0.6638323943813518  0.9818736148199321  0.8264119157316330
  0.3261124810183347  0.9869092694712478  0.8376973199241959
  0.6781608519137237  0.0051975249840623  0.1614689107574137
  0.6726334206128399  0.6729561786393390  0.8128486980664533
  0.3335737874982740  0.3247726306800161  0.1562049122274658
  0.0200719955313815  0.3391932658335932  0.8319559662041769
  0.9883438782077505  0.6705754539251529  0.1701278263247730
  0.6473436210744055  0.6419566450881575  0.5026822754585965
  0.3422446047685384  0.9946451363871276  0.4748129991378676
  0.9952805291072835  0.3393305425339861  0.4978053092863135
  0.3385916350710829  0.3523314613800608  0.4802723446528034
  0.9874665189777474  0.6446771416765955  0.5039124694703077
  0.6509813290455568  0.0092025841789933  0.5148184885822289
  0.1185367526271150  0.2441698809072079  0.1294716993012983
  0.8871030856195290  0.7503023806165743  0.8521536144869231
  0.7618515886924371  0.8793487789575849  0.1100492884470228
  0.2306073474004009  0.1100880129132094  0.8695339084560629
  0.1126924889329572  0.8840860652122799  0.1277679237634857
  0.8765573656960512  0.1252121212893371  0.8582960967835618
  0.7760311506343456  0.5587363929369715  0.4656630149430967
  0.5364106619476274  0.0872788593960507  0.1745933672766853
  0.4160911959063966  0.2111973231666084  0.4665125377915160
  0.9032620142278915  0.4542821123900254  0.1966128739317554
  0.7842782986755523  0.2087696648320545  0.4526588633931894
  0.5478819718664383  0.4563589513402491  0.1941486497859302
  0.4472880139181541  0.8926949869875713  0.8066711631040704
  0.2102631992663788  0.4288273483450098  0.5400996580015160
  0.1230622379498740  0.5573081509199511  0.8011878294278745
  0.5802294655090279  0.7892377867043123  0.5196166548437162
  0.4522395047842167  0.5358150143124192  0.7993859985150067
  0.2030576673508406  0.7776373543948267  0.5461166065029488
  0.9999088932731439  0.2589423247060338  0.9942262431674607
  0.9907781672450824  0.7323957093479976  0.0012858913610287
  0.7364028063713377  0.7157312684356256  0.9982417215927413
  0.2556517240059435  0.2667225391372696  0.9905540685505301
  0.2684074530656204  0.0011165485710478  0.0029546468972015
  0.6619548320586190  0.5912574692563624  0.3327257473404615
  0.6329494342590607  0.0506386489622201  0.3412396379339739
  0.4404222465907353  0.1084750007741988  0.3243703971917071
  0.9227076952451583  0.5902114928942268  0.3339103510604531
  0.9397924845546655  0.3444551773724243  0.3292440845960414
  0.4056094388121991  0.3235149844763825  0.3212379882761454
  0.3609294098758724  0.9520658561450333  0.6663769813387219
  0.3540652181463244  0.4103312196428419  0.6535425471037399
  0.0599039400658086  0.4085751851230555  0.6650515908813404
  0.5755466900675401  0.8973381313792714  0.6666413669120672
  0.5703222845166422  0.6611811724609851  0.6602511776932545
  0.0525298487771977  0.6392528453435986  0.6698661417265868
  0.7333175897611639  0.0135815164593964  0.9931566456710783
  0.7422747391112665  0.3368175726391200  0.7969603362639290
  0.7140481355379151  0.3740538918865326  0.6348575598601016
  0.9973392635650171  0.2290516869001138  0.1010323946239353
  0.0027080960153825  0.7632666761217592  0.8945470400717355
  0.7666575770525341  0.7645466495582554  0.0991776295345090
  0.2231232714026703  0.2225873822277649  0.8867300710789223
  0.2239504987426173  0.0024856794003085  0.1055628703079634
  0.7713930443740722  0.0035834928130427  0.8882154287205282
  0.2322490899467837  0.9965858473985065  0.8971486003354343
  0.7699767528900452  0.9994897018642135  0.0983312429823044
  0.2262619035430689  0.2344686246210514  0.0974186440202232
  0.9981592478617358  0.2284190059760292  0.8883096252674321
  0.9954042431067336  0.7703408022570670  0.1065019088927244
  0.6603456327986521  0.5541752604569297  0.4368050646619963
  0.4400926144436568  0.1104731342480392  0.4346658246366815
  0.8943306167433818  0.5627045451386365  0.2266384711320626
  0.8938520548894644  0.3284805358134548  0.4324515001764837
  0.4387040946655887  0.3347824597091105  0.2144776074969172
  0.8919176695826323  0.3339906949791853  0.2255497808171611
  0.4296239756378952  0.3274047337947295  0.4290391941864371
  0.4410317141538442  0.1120714116309784  0.2156546613401602
  0.8881655879953740  0.5542633373595933  0.4385631194237050
  0.6650380134036808  0.5652711649476885  0.2255095946806378
  0.6570451081823663  0.1019379082350653  0.4414807523255249
  0.3413794184687546  0.9038423464183793  0.7669482318177998
  0.3323294985159890  0.4383590476147745  0.5510048743864431
  0.1095679656852440  0.4388122635861365  0.7678051781699082
  0.5588113959620955  0.8899874227692237  0.5574806878926708
  0.5569238127846461  0.6579474286474678  0.7695963481720156
  0.0931590795937680  0.6601194473638046  0.5637822275424966
  0.5573728582779651  0.6669837883211969  0.5522026190852785
  0.1099230309362511  0.6638011219585636  0.7706352969087433
  0.0953128706091206  0.4321450960308368  0.5594149739965744
  0.5550061935333162  0.8824940463381949  0.7744816636651564
  0.3378261910804241  0.4284911793317221  0.7608755156045177
  0.7747127473294526  0.7695739946490647  0.8905697504411236
  0.6567698700912885  0.0963167358636809  0.2304322380429511
  0.3326386663064582  0.9008262441486607  0.5560935503495017
  0.5645704616307228  0.0284102766993755  0.0353666744157977
  0.3196552285523850  0.6729994244048001  0.4792275833821122
  0.7712761565790487  0.5857743803322180  0.7745021144234769
  0.7423286875078290  0.4105916206058424  0.7272667464225222
 
             NaN             NaN             NaN
             NaN             NaN             NaN
             NaN             NaN             NaN
             NaN             NaN             NaN
             NaN             NaN             NaN
             NaN             NaN             NaN
             NaN             NaN             NaN
             NaN             NaN             NaN
             NaN             NaN             NaN
             NaN             NaN             NaN
             NaN             NaN             NaN
             NaN             NaN             NaN
             NaN             NaN             NaN
             NaN             NaN             NaN
             NaN             NaN             NaN
             NaN             NaN             NaN
             NaN             NaN             NaN
             NaN             NaN             NaN
             NaN             NaN             NaN
             NaN             NaN             NaN
             NaN             NaN             NaN
             NaN             NaN             NaN
             NaN             NaN             NaN
             NaN             NaN             NaN
             NaN             NaN             NaN
             NaN             NaN             NaN
             NaN             NaN             NaN
             NaN             NaN             NaN
             NaN             NaN             NaN
             NaN             NaN             NaN
             NaN             NaN             NaN
             NaN             NaN             NaN
             NaN             NaN             NaN
             NaN             NaN             NaN
             NaN             NaN             NaN
             NaN             NaN             NaN
             NaN             NaN             NaN
             NaN             NaN             NaN
             NaN             NaN             NaN
             NaN             NaN             NaN
             NaN             NaN             NaN
             NaN             NaN             NaN
             NaN             NaN             NaN
             NaN             NaN             NaN
             NaN             NaN             NaN
             NaN             NaN             NaN
             NaN             NaN             NaN
             NaN             NaN             NaN
             NaN             NaN             NaN
             NaN             NaN             NaN
             NaN             NaN             NaN
             NaN             NaN             NaN
             NaN             NaN             NaN
             NaN             NaN             NaN
             NaN             NaN             NaN
             NaN             NaN             NaN
             NaN             NaN             NaN
             NaN             NaN             NaN
             NaN             NaN             NaN
             NaN             NaN             NaN
             NaN             NaN             NaN
             NaN             NaN             NaN
             NaN             NaN             NaN
             NaN             NaN             NaN
             NaN             NaN             NaN
             NaN             NaN             NaN
             NaN             NaN             NaN
             NaN             NaN             NaN
             NaN             NaN             NaN
             NaN             NaN             NaN
             NaN             NaN             NaN
             NaN             NaN             NaN
             NaN             NaN             NaN
             NaN             NaN             NaN
             NaN             NaN             NaN
             NaN             NaN             NaN
             NaN             NaN             NaN
             NaN             NaN             NaN
             NaN             NaN             NaN
             NaN             NaN             NaN
             NaN             NaN             NaN
             NaN             NaN             NaN
             NaN             NaN             NaN
             NaN             NaN             NaN
             NaN             NaN             NaN
             NaN             NaN             NaN
             NaN             NaN             NaN
             NaN             NaN             NaN
             NaN             NaN             NaN
             NaN             NaN             NaN
             NaN             NaN             NaN
             NaN             NaN             NaN
             NaN             NaN             NaN
             NaN             NaN             NaN
             NaN             NaN             NaN
             NaN             NaN             NaN
             NaN             NaN             NaN
             NaN             NaN             NaN
             NaN             NaN             NaN
             NaN             NaN             NaN
             NaN             NaN             NaN
             NaN             NaN             NaN
             NaN             NaN             NaN
             NaN             NaN             NaN
             NaN             NaN             NaN
             NaN             NaN             NaN
             NaN             NaN             NaN
             NaN             NaN             NaN
             NaN             NaN             NaN
             NaN             NaN             NaN
             NaN             NaN             NaN
             NaN             NaN             NaN
             NaN             NaN             NaN
             NaN             NaN             NaN
