O  C                                    
   1.00000000000000     
    13.6750001907000005    0.0000000000000000    0.0000000000000000
    -6.8375000954000003   11.8428975618999992    0.0000000000000000
     0.0000000000000000    0.0000000000000000   14.7670001983999999
   O    Si   Al   Ag
    72    33     3     3
Direct
  0.8977149720000028  0.0964820009999983  0.1195639970000002
  0.1022630040000010  0.8851550219999993  0.8817769890000022
  0.8913599850000011  0.7912049890000006  0.1246510000000001
  0.0927689970000003  0.1950930060000005  0.8683019879999989
  0.1940059960000013  0.1029699970000024  0.1168589959999977
  0.7959790230000010  0.8989530209999970  0.8812350030000005
  0.5510519740000035  0.4234000149999986  0.4597389999999990
  0.7617409830000028  0.2339310050000023  0.2198629980000035
  0.5642290119999984  0.1406379940000022  0.4715979989999965
  0.7639330029999982  0.5355420109999969  0.2029789979999990
  0.8624389769999965  0.4232900140000027  0.4668110010000035
  0.4638780060000016  0.2359980049999990  0.1837330010000002
  0.2268919939999989  0.7731590269999984  0.7699120039999983
  0.4232560100000029  0.5671190019999983  0.5251250270000014
  0.2277999969999982  0.4454559979999999  0.7726140019999974
  0.4255779980000014  0.8477799890000028  0.5327349900000016
  0.5289070010000003  0.7542120219999973  0.8054149749999979
  0.1223779990000011  0.5585060120000023  0.5329779979999998
  0.9757140279999987  0.3141340020000030  0.1630749999999992
  0.0191420000000022  0.6672840120000032  0.8413450119999979
  0.6788539889999967  0.6739619969999993  0.1787350029999999
  0.3099899890000017  0.3129599990000003  0.8184869890000002
  0.3170250060000015  0.0148229999999998  0.1783010070000017
  0.6591060160000026  0.9778540129999982  0.8296250100000009
  0.3204999860000015  0.9817590119999977  0.8389400240000029
  0.6767519710000016  0.0043539999999993  0.1635249999999999
  0.6663089990000017  0.6679340000000025  0.8153899910000035
  0.3303630050000024  0.3224239950000012  0.1585499939999977
  0.0137470000000022  0.3338760139999977  0.8320220109999994
  0.9860010149999994  0.6711369750000031  0.1775770039999998
  0.6450340150000002  0.6393179889999985  0.5042229889999987
  0.3408539890000029  0.9900289770000015  0.4741089939999981
  0.9935820099999972  0.3355950119999989  0.4984140099999976
  0.3332329990000034  0.3473860029999969  0.4814510049999967
  0.9846360089999990  0.6413969990000012  0.5043479799999986
  0.6460210079999982  0.0051399999999973  0.5154659749999979
  0.1166519969999982  0.2433930039999979  0.1282330009999981
  0.8825129869999984  0.7459160089999983  0.8622009750000004
  0.7606970069999974  0.8777279849999999  0.1150119979999999
  0.2246740009999968  0.1049169969999966  0.8707470299999969
  0.1100689989999992  0.8822860120000016  0.1302890030000015
  0.8730149869999977  0.1191269979999987  0.8605250119999965
  0.7702059750000032  0.5496600270000016  0.4750359949999989
  0.5345960260000027  0.0864130040000006  0.1748539949999994
  0.4111630020000021  0.2063229979999974  0.4677740039999989
  0.9030029769999999  0.4533770079999968  0.1961469949999994
  0.7816150190000002  0.2046400010000013  0.4544140100000007
  0.5443900229999983  0.4560619889999984  0.1959159970000002
  0.4427610039999976  0.8893579840000001  0.8069090250000031
  0.2081200029999977  0.4271239939999987  0.5415639880000001
  0.1200829969999972  0.5536410209999971  0.8018850090000029
  0.5769289730000011  0.7856760029999990  0.5216640229999996
  0.4457710089999978  0.5323250289999990  0.8008760210000005
  0.1990669970000027  0.7754160169999977  0.5498579739999983
  0.9937809709999996  0.2573530080000026  0.9956399800000000
  0.9944120050000009  0.7251030210000025  0.0052489999999992
  0.7229229809999964  0.7099580169999982  0.0026390000000021
  0.2558229859999983  0.2640680069999988  0.9917020199999982
  0.2657000120000035  0.9991980200000015  0.0046310000000034
  0.6634789710000035  0.5830309990000018  0.3365220129999997
  0.6294829850000028  0.0486730000000009  0.3421280089999996
  0.4395149950000032  0.1075420009999988  0.3250150080000012
  0.9104679820000001  0.5793709750000033  0.3369089959999982
  0.9357730150000023  0.3458440010000032  0.3318170009999974
  0.4047940080000032  0.3221440020000017  0.3232040110000014
  0.3585210139999973  0.9515839820000025  0.6671140190000031
  0.3506349920000034  0.4064599869999981  0.6547120210000017
  0.0556709990000002  0.4058369990000017  0.6655560140000034
  0.5739820000000009  0.8958640099999968  0.6684889790000028
  0.5659459829999989  0.6570789809999980  0.6621220110000010
  0.0456099989999998  0.6313260200000030  0.6704900260000031
  0.7303259970000013  0.0094410000000025  0.9956349730000014
  0.9944720270000005  0.2271579949999989  0.1021099980000031
  0.9981030229999988  0.7573670149999998  0.8986729980000021
  0.7623919839999971  0.7614809869999988  0.1018510010000000
  0.2199530010000004  0.2188140000000018  0.8883659840000036
  0.2211149930000005  0.0004440000000017  0.1071479989999986
  0.7670559880000027  0.9976630210000010  0.8905389900000031
  0.2272289989999976  0.9919279810000035  0.8990499969999988
  0.7680389880000007  0.9970729950000035  0.1008089999999982
  0.2242819960000020  0.2324170019999983  0.0983429999999998
  0.9933890100000013  0.2246149930000030  0.8902180190000024
  0.9940819739999966  0.7670909759999986  0.1083180010000007
  0.6568909880000007  0.5484600070000027  0.4414989950000034
  0.4375610049999992  0.1073829979999985  0.4351849849999994
  0.8899520040000013  0.5588669779999975  0.2279630009999991
  0.8907229900000004  0.3249480129999966  0.4352270070000017
  0.4363760049999996  0.3334800000000016  0.2160220000000024
  0.8896009919999983  0.3328030110000029  0.2271420060000011
  0.4253189860000006  0.3232089879999975  0.4312539989999991
  0.4393010140000015  0.1111359969999981  0.2161920069999965
  0.8826199769999974  0.5481280090000027  0.4423680009999984
  0.6633740070000016  0.5620110030000021  0.2279309930000011
  0.6536020039999997  0.0987889989999999  0.4426029919999976
  0.3372069899999985  0.9009249810000028  0.7670750019999986
  0.3293209970000035  0.4346559940000034  0.5523399710000021
  0.1043609979999971  0.4339669940000022  0.7687829730000004
  0.5553140040000031  0.8863019940000001  0.5596169829999980
  0.5516279940000004  0.6539639829999970  0.7716929910000019
  0.0903600010000005  0.6567860250000024  0.5644209980000028
  0.5544570089999965  0.6634640099999984  0.5541409849999965
  0.1060559969999986  0.6598500010000024  0.7720170019999983
  0.0926499959999987  0.4291499850000022  0.5604119899999986
  0.5510699749999972  0.8793209789999992  0.7762159709999992
  0.3331210019999986  0.4237000050000006  0.7620700000000014
  0.7682570220000002  0.7616050239999979  0.8947269920000025
  0.6543509959999980  0.0952249990000027  0.2314710019999993
  0.3298490049999998  0.8980010149999984  0.5576369759999977
  0.5632219909999989  0.0260600000000011  0.0361890009999968
  0.3181549910000001  0.6687930229999992  0.4808160070000014
  0.7525839810000008  0.5820249920000009  0.7557479740000019
 
  0.00000000E+00  0.00000000E+00  0.00000000E+00
  0.00000000E+00  0.00000000E+00  0.00000000E+00
  0.00000000E+00  0.00000000E+00  0.00000000E+00
  0.00000000E+00  0.00000000E+00  0.00000000E+00
  0.00000000E+00  0.00000000E+00  0.00000000E+00
  0.00000000E+00  0.00000000E+00  0.00000000E+00
  0.00000000E+00  0.00000000E+00  0.00000000E+00
  0.00000000E+00  0.00000000E+00  0.00000000E+00
  0.00000000E+00  0.00000000E+00  0.00000000E+00
  0.00000000E+00  0.00000000E+00  0.00000000E+00
  0.00000000E+00  0.00000000E+00  0.00000000E+00
  0.00000000E+00  0.00000000E+00  0.00000000E+00
  0.00000000E+00  0.00000000E+00  0.00000000E+00
  0.00000000E+00  0.00000000E+00  0.00000000E+00
  0.00000000E+00  0.00000000E+00  0.00000000E+00
  0.00000000E+00  0.00000000E+00  0.00000000E+00
  0.00000000E+00  0.00000000E+00  0.00000000E+00
  0.00000000E+00  0.00000000E+00  0.00000000E+00
  0.00000000E+00  0.00000000E+00  0.00000000E+00
  0.00000000E+00  0.00000000E+00  0.00000000E+00
  0.00000000E+00  0.00000000E+00  0.00000000E+00
  0.00000000E+00  0.00000000E+00  0.00000000E+00
  0.00000000E+00  0.00000000E+00  0.00000000E+00
  0.00000000E+00  0.00000000E+00  0.00000000E+00
  0.00000000E+00  0.00000000E+00  0.00000000E+00
  0.00000000E+00  0.00000000E+00  0.00000000E+00
  0.00000000E+00  0.00000000E+00  0.00000000E+00
  0.00000000E+00  0.00000000E+00  0.00000000E+00
  0.00000000E+00  0.00000000E+00  0.00000000E+00
  0.00000000E+00  0.00000000E+00  0.00000000E+00
  0.00000000E+00  0.00000000E+00  0.00000000E+00
  0.00000000E+00  0.00000000E+00  0.00000000E+00
  0.00000000E+00  0.00000000E+00  0.00000000E+00
  0.00000000E+00  0.00000000E+00  0.00000000E+00
  0.00000000E+00  0.00000000E+00  0.00000000E+00
  0.00000000E+00  0.00000000E+00  0.00000000E+00
  0.00000000E+00  0.00000000E+00  0.00000000E+00
  0.00000000E+00  0.00000000E+00  0.00000000E+00
  0.00000000E+00  0.00000000E+00  0.00000000E+00
  0.00000000E+00  0.00000000E+00  0.00000000E+00
  0.00000000E+00  0.00000000E+00  0.00000000E+00
  0.00000000E+00  0.00000000E+00  0.00000000E+00
  0.00000000E+00  0.00000000E+00  0.00000000E+00
  0.00000000E+00  0.00000000E+00  0.00000000E+00
  0.00000000E+00  0.00000000E+00  0.00000000E+00
  0.00000000E+00  0.00000000E+00  0.00000000E+00
  0.00000000E+00  0.00000000E+00  0.00000000E+00
  0.00000000E+00  0.00000000E+00  0.00000000E+00
  0.00000000E+00  0.00000000E+00  0.00000000E+00
  0.00000000E+00  0.00000000E+00  0.00000000E+00
  0.00000000E+00  0.00000000E+00  0.00000000E+00
  0.00000000E+00  0.00000000E+00  0.00000000E+00
  0.00000000E+00  0.00000000E+00  0.00000000E+00
  0.00000000E+00  0.00000000E+00  0.00000000E+00
  0.00000000E+00  0.00000000E+00  0.00000000E+00
  0.00000000E+00  0.00000000E+00  0.00000000E+00
  0.00000000E+00  0.00000000E+00  0.00000000E+00
  0.00000000E+00  0.00000000E+00  0.00000000E+00
  0.00000000E+00  0.00000000E+00  0.00000000E+00
  0.00000000E+00  0.00000000E+00  0.00000000E+00
  0.00000000E+00  0.00000000E+00  0.00000000E+00
  0.00000000E+00  0.00000000E+00  0.00000000E+00
  0.00000000E+00  0.00000000E+00  0.00000000E+00
  0.00000000E+00  0.00000000E+00  0.00000000E+00
  0.00000000E+00  0.00000000E+00  0.00000000E+00
  0.00000000E+00  0.00000000E+00  0.00000000E+00
  0.00000000E+00  0.00000000E+00  0.00000000E+00
  0.00000000E+00  0.00000000E+00  0.00000000E+00
  0.00000000E+00  0.00000000E+00  0.00000000E+00
  0.00000000E+00  0.00000000E+00  0.00000000E+00
  0.00000000E+00  0.00000000E+00  0.00000000E+00
  0.00000000E+00  0.00000000E+00  0.00000000E+00
  0.00000000E+00  0.00000000E+00  0.00000000E+00
  0.00000000E+00  0.00000000E+00  0.00000000E+00
  0.00000000E+00  0.00000000E+00  0.00000000E+00
  0.00000000E+00  0.00000000E+00  0.00000000E+00
  0.00000000E+00  0.00000000E+00  0.00000000E+00
  0.00000000E+00  0.00000000E+00  0.00000000E+00
  0.00000000E+00  0.00000000E+00  0.00000000E+00
  0.00000000E+00  0.00000000E+00  0.00000000E+00
  0.00000000E+00  0.00000000E+00  0.00000000E+00
  0.00000000E+00  0.00000000E+00  0.00000000E+00
  0.00000000E+00  0.00000000E+00  0.00000000E+00
  0.00000000E+00  0.00000000E+00  0.00000000E+00
  0.00000000E+00  0.00000000E+00  0.00000000E+00
  0.00000000E+00  0.00000000E+00  0.00000000E+00
  0.00000000E+00  0.00000000E+00  0.00000000E+00
  0.00000000E+00  0.00000000E+00  0.00000000E+00
  0.00000000E+00  0.00000000E+00  0.00000000E+00
  0.00000000E+00  0.00000000E+00  0.00000000E+00
  0.00000000E+00  0.00000000E+00  0.00000000E+00
  0.00000000E+00  0.00000000E+00  0.00000000E+00
  0.00000000E+00  0.00000000E+00  0.00000000E+00
  0.00000000E+00  0.00000000E+00  0.00000000E+00
  0.00000000E+00  0.00000000E+00  0.00000000E+00
  0.00000000E+00  0.00000000E+00  0.00000000E+00
  0.00000000E+00  0.00000000E+00  0.00000000E+00
  0.00000000E+00  0.00000000E+00  0.00000000E+00
  0.00000000E+00  0.00000000E+00  0.00000000E+00
  0.00000000E+00  0.00000000E+00  0.00000000E+00
  0.00000000E+00  0.00000000E+00  0.00000000E+00
  0.00000000E+00  0.00000000E+00  0.00000000E+00
  0.00000000E+00  0.00000000E+00  0.00000000E+00
  0.00000000E+00  0.00000000E+00  0.00000000E+00
  0.00000000E+00  0.00000000E+00  0.00000000E+00
  0.00000000E+00  0.00000000E+00  0.00000000E+00
  0.00000000E+00  0.00000000E+00  0.00000000E+00
  0.00000000E+00  0.00000000E+00  0.00000000E+00
  0.00000000E+00  0.00000000E+00  0.00000000E+00
  0.00000000E+00  0.00000000E+00  0.00000000E+00
  0.00000000E+00  0.00000000E+00  0.00000000E+00
